LAMMPS (2 Aug 2023)
#-------------------- Initialization -----------------------------------------------------
clear
echo            both    # echoes each input script command to both log file and screen
#-----------------------------------------------------------------------------------------
units           metal   # determines units of all quantities used in the input file
atom_style      atomic
boundary        p p p   # periodic boundary condition
#-----------------------------------------------------------------------------------------
variable Tini equal 300.0 # [K] (Initial temperature)
variable Tfin equal 593.0 # [K] (Annealing temperature), other condition: 873 K, 973 K

variable Nout equal 400 # every 400 time steps to the specified file

#-------------------- Atom & Lattice description ----------------------------------------
read_data       data.lammps
Reading data file ...
  triclinic box = (0 0 0) to (13.04 25.897 10.436872) with tilt (1.5857339e-15 -2.8689151 8.3844923e-16)
  1 by 1 by 1 MPI processor grid
  reading atoms ...
  308 atoms
  read_data CPU = 0.006 seconds

replicate 1 1 1
Replication is creating a 1x1x1 = 1 times larger system...
  triclinic box = (0 0 0) to (13.04 25.897 10.436872) with tilt (1.5857339e-15 -2.8689151 8.3844923e-16)
  1 by 1 by 1 MPI processor grid
  308 atoms
  replicate CPU = 0.000 seconds

variable elem string "Ni N C H" # specifies the potential file used

#-------------------- Force field --------------------------------------------------------
pair_style hybrid/overlay chgnet/gpu /mnt/d/lammps/potentials/CHGNET momb 12.0 0.75 20.0
#pair_style    chgnet /mnt/d/lammps/potentials/CHGNET
#pair_style    chgnet/d3 /mnt/d/lammps/potentials/CHGNET
#pair_style    chgnet/gpu /mnt/d/lammps/potentials/CHGNET
#pair_style    chgnet/d3/gpu /mnt/d/lammps/potentials/CHGNET

pair_coeff    * *  chgnet/gpu 0.3.0 ${elem}
pair_coeff    * *  chgnet/gpu 0.3.0 Ni N C H

# atom type 1, Ni
variable C6_1 equal 10.80 # Jnm6mol-1
variable R0_1 equal 1.562 # Angstrom

# atom type 2, N
variable C6_2 equal 1.23  # Jnm6mol-1
variable R0_2 equal 1.397 # Angstrom

# atom type 3, C
variable C6_3 equal 1.75  # Jnm6mol-1
variable R0_3 equal 1.452 # Angstrom

# atom type 4, H
variable C6_4 equal 0.14  # Jnm6mol-1
variable R0_4 equal 1.001 # Angstrom

# convert [Jnm6mol-1] to [eVA6], (sqrt() or ()^0.5)
pair_coeff 1 1 momb 0.0 1.0 1.0 $(sqrt(v_C6_1 * v_C6_1)*10.364) $(v_R0_1 + v_R0_1) # Ni-Ni
pair_coeff 1 1 momb 0.0 1.0 1.0 111.93120000000001824 $(v_R0_1 + v_R0_1) 
pair_coeff 1 1 momb 0.0 1.0 1.0 111.93120000000001824 3.1240000000000001101 
pair_coeff 1 2 momb 0.0 1.0 1.0 $(sqrt(v_C6_1 * v_C6_2)*10.364) $(v_R0_1 + v_R0_2) # Ni-N
pair_coeff 1 2 momb 0.0 1.0 1.0 37.773901001405725708 $(v_R0_1 + v_R0_2) 
pair_coeff 1 2 momb 0.0 1.0 1.0 37.773901001405725708 2.9590000000000000746 
pair_coeff 1 3 momb 0.0 1.0 1.0 $(sqrt(v_C6_1 * v_C6_3)*10.364) $(v_R0_1 + v_R0_3) # Ni-C
pair_coeff 1 3 momb 0.0 1.0 1.0 45.056588579252206728 $(v_R0_1 + v_R0_3) 
pair_coeff 1 3 momb 0.0 1.0 1.0 45.056588579252206728 3.0140000000000002345 
pair_coeff 1 4 momb 0.0 1.0 1.0 $(sqrt(v_C6_1 * v_C6_4)*10.364) $(v_R0_1 + v_R0_4) # Ni-H
pair_coeff 1 4 momb 0.0 1.0 1.0 12.743927728608634098 $(v_R0_1 + v_R0_4) 
pair_coeff 1 4 momb 0.0 1.0 1.0 12.743927728608634098 2.5629999999999997229 
pair_coeff 2 2 momb 0.0 1.0 1.0 $(sqrt(v_C6_2 * v_C6_2)*10.364) $(v_R0_2 + v_R0_2) # N-N
pair_coeff 2 2 momb 0.0 1.0 1.0 12.74772000000000105 $(v_R0_2 + v_R0_2) 
pair_coeff 2 2 momb 0.0 1.0 1.0 12.74772000000000105 2.7940000000000000391 
pair_coeff 2 3 momb 0.0 1.0 1.0 $(sqrt(v_C6_2 * v_C6_3)*10.364) $(v_R0_2 + v_R0_3) # N-C
pair_coeff 2 3 momb 0.0 1.0 1.0 15.205439738462022348 $(v_R0_2 + v_R0_3) 
pair_coeff 2 3 momb 0.0 1.0 1.0 15.205439738462022348 2.849000000000000199 
pair_coeff 2 4 momb 0.0 1.0 1.0 $(sqrt(v_C6_2 * v_C6_4)*10.364) $(v_R0_2 + v_R0_4) # N-H
pair_coeff 2 4 momb 0.0 1.0 1.0 4.3007478199959603415 $(v_R0_2 + v_R0_4) 
pair_coeff 2 4 momb 0.0 1.0 1.0 4.3007478199959603415 2.3979999999999996874 
pair_coeff 3 3 momb 0.0 1.0 1.0 $(sqrt(v_C6_3 * v_C6_3)*10.364) $(v_R0_3 + v_R0_3) # C-C
pair_coeff 3 3 momb 0.0 1.0 1.0 18.137000000000000455 $(v_R0_3 + v_R0_3) 
pair_coeff 3 3 momb 0.0 1.0 1.0 18.137000000000000455 2.9039999999999999147 
pair_coeff 3 4 momb 0.0 1.0 1.0 $(sqrt(v_C6_3 * v_C6_4)*10.364) $(v_R0_3 + v_R0_4) # C-H
pair_coeff 3 4 momb 0.0 1.0 1.0 5.1299182761521660012 $(v_R0_3 + v_R0_4) 
pair_coeff 3 4 momb 0.0 1.0 1.0 5.1299182761521660012 2.4529999999999998472 
pair_coeff 4 4 momb 0.0 1.0 1.0 $(sqrt(v_C6_4 * v_C6_4)*10.364) $(v_R0_4 + v_R0_4) # H-H
pair_coeff 4 4 momb 0.0 1.0 1.0 1.4509600000000002495 $(v_R0_4 + v_R0_4) 
pair_coeff 4 4 momb 0.0 1.0 1.0 1.4509600000000002495 2.0019999999999997797 

#-------------------- Energy Minimization ------------------------------------------------
# 0 [K], structure optimization
minimize 1.0e-4 1.0e-6 1000 10000

CITE-CITE-CITE-CITE-CITE-CITE-CITE-CITE-CITE-CITE-CITE-CITE-CITE

Your simulation uses code contributions which should be cited:

- Pair style momb: doi:10.1021/jp412098n

@Article{pair_momb_2015,
title = {A Force Field for Describing the Polyvinylpyrrolidone-Mediated
    Solution-Phase Synthesis of Shape-Selective {Ag} Nanoparticles},
volume = {118},
number = {6},
url = {https://doi.org/10.1021/jp412098n},
doi = {10.1021/jp412098n},
journal = {J.~Phys.\ Chem.~C},
author = {Zhou, Ya and Wissam A. Saidi and Kristen A. Fichthorn},
year = {2014},
pages = {3366--3374}
}

CITE-CITE-CITE-CITE-CITE-CITE-CITE-CITE-CITE-CITE-CITE-CITE-CITE

Neighbor list info ...
  update: every = 1 steps, delay = 0 steps, check = yes
  max neighbors/atom: 2000, page size: 100000
  master list distance cutoff = 14
  ghost atom cutoff = 14
  binsize = 7, bins = 3 4 2
  2 neighbor lists, perpetual/occasional/extra = 2 0 0
  (1) pair chgnet/gpu, perpetual
      attributes: full, newton on, cut 8
      pair build: full/bin/atomonly
      stencil: full/bin/3d
      bin: standard
  (2) pair momb, perpetual
      attributes: half, newton on
      pair build: half/bin/newton/tri
      stencil: half/bin/3d/tri
      bin: standard
Per MPI rank memory allocation (min/avg/max) = 5.615 | 5.615 | 5.615 Mbytes
   Step          Temp          E_pair         E_mol          TotEng         Press     
         0   0             -2166.2812      0             -2166.2812      153163.08    
         8   0             -2224.7957      0             -2224.7957      13259.615    
Loop time of 3.27088 on 1 procs for 8 steps with 308 atoms

178.8% CPU use with 1 MPI tasks x no OpenMP threads

Minimization stats:
  Stopping criterion = energy tolerance
  Energy initial, next-to-last, final = 
     -2166.28124585621  -2224.58213267733  -2224.79568937355
  Force two-norm initial, final = 116.42223 3.2157426
  Force max component initial, final = 8.5957331 0.44113491
  Final line search alpha, max atom move = 0.12964143 0.057189359
  Iterations, force evaluations = 8 16

MPI task timing breakdown:
Section |  min time  |  avg time  |  max time  |%varavg| %total
---------------------------------------------------------------
Pair    | 3.2702     | 3.2702     | 3.2702     |   0.0 | 99.98
Neigh   | 0          | 0          | 0          |   0.0 |  0.00
Comm    | 0.00045744 | 0.00045744 | 0.00045744 |   0.0 |  0.01
Output  | 0          | 0          | 0          |   0.0 |  0.00
Modify  | 0          | 0          | 0          |   0.0 |  0.00
Other   |            | 0.0002512  |            |       |  0.01

Nlocal:            308 ave         308 max         308 min
Histogram: 1 0 0 0 0 0 0 0 0 0
Nghost:           7284 ave        7284 max        7284 min
Histogram: 1 0 0 0 0 0 0 0 0 0
Neighs:         153636 ave      153636 max      153636 min
Histogram: 1 0 0 0 0 0 0 0 0 0
FullNghs:        57280 ave       57280 max       57280 min
Histogram: 1 0 0 0 0 0 0 0 0 0

Total # of neighbors = 153636
Ave neighs/atom = 498.81818
Neighbor list builds = 0
Dangerous builds = 0

#-------------------- Settings -----------------------------------------------------------
reset_timestep 0

timestep 0.00025 # 0.25 [fs] (Recommend 0.1-0.5 [fs]), sets the timestep for subsequent simulations

thermo ${Nout}   # computes and prints thermodynamic
thermo 400   
thermo_style custom step temp vol press etotal   # specifies content of thermodynamic data to be printed in screen

velocity all create ${Tini} 12345 mom yes rot no # sets the velocity of a group of atoms
velocity all create 300 12345 mom yes rot no 
#-------------------- Equilibrium calculation --------------------------------------------

#---------- output file settings --------------------------------------
dump            d1 all cfg ${Nout} cfg/run.*.cfg mass type xs ys zs id type vx vy vz fx fy fz
dump            d1 all cfg 400 cfg/run.*.cfg mass type xs ys zs id type vx vy vz fx fy fz
dump_modify     d1 element ${elem}
dump_modify     d1 element Ni N C H
#----------------------------------------------------------------------

#-------------------- Run the simulation -------------------------------------------------
# Equilibrium system, calculation settings
fix f1 all npt temp ${Tini} ${Tfin} $(100*dt) iso 1.0 1.0 $(1000*dt) # temp and pressure conserved
fix f1 all npt temp 300 ${Tfin} $(100*dt) iso 1.0 1.0 $(1000*dt) 
fix f1 all npt temp 300 593 $(100*dt) iso 1.0 1.0 $(1000*dt) 
fix f1 all npt temp 300 593 0.025000000000000001388 iso 1.0 1.0 $(1000*dt) 
fix f1 all npt temp 300 593 0.025000000000000001388 iso 1.0 1.0 0.25 

run             80000 # 20 [ps]
Per MPI rank memory allocation (min/avg/max) = 4.506 | 4.506 | 4.506 Mbytes
   Step          Temp          Volume         Press          TotEng    
         0   300            3524.4992      16867.486     -2212.8908    
       400   305.39244      3618.3055     -4359.4086     -2205.1074    
       800   311.54435      3635.8289     -135.72518     -2202.6921    
      1200   284.61166      3639.0022     -9.9802258     -2204.7984    
      1600   316.67826      3561.9956      560.17787     -2204.1297    
      2000   323.81328      3586.6874     -4619.1585     -2202.9321    
      2400   290.7896       3565.7455      3085.5833     -2204.4835    
      2800   300.45282      3467.7617     -407.79541     -2204.3472    
      3200   297.83158      3389.1619      2747.9775     -2204.2531    
      3600   306.02686      3386.6159      1587.4459     -2205.3374    
      4000   333.44292      3393.2929     -1304.9043     -2203.1953    
      4400   324.82024      3430.5408     -2732.2253     -2202.5966    
      4800   299.43305      3568.4675     -2506.4197     -2203.7809    
      5200   315.09426      3489.6713     -971.71079     -2203.812     
      5600   306.9924       3493.1283      5270.9535     -2203.763     
      6000   328.05997      3520.0785     -2327.6374     -2202.5275    
      6400   322.61416      3469.424       6602.1481     -2203.9617    
      6800   323.58408      3463.5681      1214.6603     -2203.1756    
      7200   325.77253      3489.7029     -500.7838      -2202.8063    
      7600   335.97656      3406.4746      2917.8997     -2201.5745    
      8000   324.38562      3382.4263      3601.6349     -2203.3321    
      8400   340.20276      3371.6419     -4509.1486     -2202.0997    
      8800   342.02603      3339.6007      1053.7454     -2202.1242    
      9200   352.01293      3396.7965      2221.7558     -2201.1625    
      9600   330.21127      3374.4359      4313.1303     -2202.8266    
     10000   320.05798      3276.1616      6335.2328     -2202.6519    
     10400   353.8503       3325.82        1509.0392     -2201.8765    
     10800   339.65484      3377.9269      6239.7352     -2201.5709    
     11200   366.54751      3380.1444     -3968.4315     -2200.2023    
     11600   342.86844      3276.6334      1330.7344     -2202.1181    
     12000   337.63664      3282.002       4629.1984     -2203.3223    
     12400   363.33637      3349.0936      1624.1556     -2201.5103    
     12800   330.16417      3378.8594      1176.7776     -2201.6692    
     13200   334.70433      3374.8705     -2307.4393     -2201.718     
     13600   373.02772      3387.553      -642.91206     -2200.3093    
     14000   353.57599      3422.0676     -3346.4872     -2201.0296    
     14400   332.48502      3363.6726     -292.89404     -2202.414     
     14800   358.54193      3258.3618     -667.626       -2200.8018    
     15200   339.63314      3277.9055      7277.5877     -2200.4568    
     15600   341.88584      3315.2429     -2649.0195     -2201.851     
     16000   333.15693      3327.132      -1036.5804     -2201.8221    
     16400   368.84214      3386.4669     -89.515162     -2200.3426    
     16800   390.80771      3324.9299     -1425.0982     -2199.0373    
     17200   374.243        3342.2022     -2517.5883     -2200.4356    
     17600   344.89861      3346.1344      4733.4874     -2199.9502    
     18000   369.97696      3365.6468      3136.5636     -2200.3264    
     18400   379.87594      3383.0441     -7233.3295     -2199.2232    
     18800   330.37349      3320.8615      1921.4465     -2201.7996    
     19200   364.3154       3374.1815     -1245.0233     -2199.9101    
     19600   377.43303      3383.9331      1008.1739     -2199.0425    
     20000   401.49667      3352.2273      833.48572     -2197.7509    
     20400   378.76345      3371.6632     -6008.2222     -2199.2886    
     20800   376.19106      3420.1624      6741.4076     -2198.3671    
     21200   380.21748      3353.0497     -6767.0007     -2198.2282    
     21600   355.32668      3357.9015     -3973.3392     -2199.6039    
     22000   387.48217      3440.0159     -552.83737     -2197.5251    
     22400   369.25552      3467.7627     -5753.4971     -2198.2045    
     22800   369.80455      3334.1167      5438.0566     -2199.62      
     23200   383.66764      3359.5664     -5335.6772     -2199.2323    
     23600   382.38514      3464.2211     -8928.7789     -2198.7652    
     24000   375.07859      3382.9773      5878.4552     -2198.5556    
     24400   425.36943      3339.2542      916.49593     -2196.4195    
     24800   389.51882      3306.6116      1096.1487     -2198.4534    
     25200   436.60097      3371.3847     -407.75907     -2196.053     
     25600   395.6699       3390.2443     -6171.4433     -2198.065     
     26000   369.30938      3321.7673      5439.1865     -2197.6896    
     26400   412.65005      3265.8604      662.56566     -2196.9405    
     26800   372.67282      3263.0071      7099.5367     -2198.346     
     27200   376.43411      3376.9819     -8076.3011     -2197.7139    
     27600   384.37445      3322.4453     -143.15785     -2197.3369    
     28000   407.96594      3284.0814      213.33584     -2197.4062    
     28400   443.59211      3245.5353     -11330.018     -2195.2339    
     28800   435.726        3255.9083      3622.8673     -2197.743     
     29200   391.27867      3330.0441     -11120.825     -2197.9451    
     29600   359.22078      3295.0662     -5065.5367     -2200.2174    
     30000   406.17307      3287.5546     -171.21682     -2197.8076    
     30400   404.56774      3298.1237      1703.4454     -2196.495     
     30800   436.22435      3308.3813     -4439.7429     -2198.0471    
     31200   421.41937      3267.0119     -1229.7779     -2195.8237    
     31600   382.63823      3287.1301      8300.9028     -2198.6917    
     32000   423.71287      3253.121      -4581.9279     -2197.0663    
     32400   417.77786      3245.5608     -6636.8105     -2198.1861    
     32800   406.3942       3314.9232      6259.4366     -2198.099     
     33200   421.27008      3443.238      -4985.8047     -2197.3576    
     33600   458.17364      3387.8671     -6235.3893     -2195.6448    
     34000   442.03225      3323.6977      9739.0853     -2196.1425    
     34400   422.48844      3345.0551     -982.71806     -2197.8637    
     34800   423.0857       3420.8681      1187.3348     -2195.9396    
     35200   435.37455      3414.6589      6176.3787     -2196.9232    
     35600   451.04357      3417.7319      7520.8088     -2194.1308    
     36000   443.1669       3418.6311     -4864.0288     -2195.8454    
     36400   405.25993      3303.591      -2002.7464     -2197.2381    
     36800   423.1773       3269.9112      8298.3647     -2196.5809    
     37200   428.98703      3302.6064     -3619.4455     -2196.6777    
     37600   412.15552      3324.4928      856.79405     -2197.536     
     38000   471.82568      3320.633       12087.387     -2194.483     
     38400   445.45988      3369.7926     -23.326642     -2193.6364    
     38800   447.58203      3415.0483     -4477.5131     -2195.5371    
     39200   422.89896      3350.1826      40.853266     -2194.6644    
     39600   476.61889      3369.2047      3017.3494     -2193.9581    
     40000   433.85561      3401.6082     -3479.2345     -2196.421     
     40400   432.79114      3325.3217     -4954.0556     -2195.2656    
     40800   477.2779       3275.5887      8182.009      -2194.3601    
     41200   452.64426      3310.0946     -2566.0133     -2195.2011    
     41600   433.44871      3334.1176      4046.0061     -2196.3807    
     42000   442.08004      3353.4952      3387.7348     -2194.7279    
     42400   477.19308      3366.5226      6891.9706     -2194.5356    
     42800   460.42516      3347.4796     -3246.414      -2195.0305    
     43200   491.9258       3335.2284     -3995.4624     -2193.7909    
     43600   464.81393      3360.7099      4834.7416     -2194.6791    
     44000   488.36859      3358.8541      2669.529      -2193.1011    
     44400   415.71233      3353.8907     -4238.3766     -2196.711     
     44800   467.64793      3314.9599      4561.4762     -2192.869     
     45200   490.54818      3356.8912     -659.98656     -2192.8814    
     45600   460.98227      3516.5809     -9261.8071     -2193.4924    
     46000   461.38261      3477.5443      2012.1746     -2192.6817    
     46400   455.76219      3334.1756      6270.9696     -2195.1988    
     46800   484.12593      3305.1529     -4155.8711     -2194.4629    
     47200   485.02741      3281.0593      8855.0683     -2192.578     
     47600   469.74902      3329.0319     -1454.1476     -2193.6584    
     48000   493.91155      3353.7365      2585.9434     -2192.997     
     48400   466.73288      3363.7977     -2079.3403     -2191.7088    
     48800   451.47202      3419.1154     -8808.6654     -2194.9185    
     49200   504.13313      3427.0326     -103.46436     -2191.9259    
     49600   506.20015      3488.8354      2548.4218     -2192.3636    
     50000   497.44815      3454.8473     -519.22223     -2188.1726    
     50400   480.4099       3417.7009      2420.384      -2192.2424    
     50800   498.14522      3430.107      -3849.2546     -2190.8665    
     51200   445.77081      3383.3714     -2685.0126     -2193.7292    
     51600   442.28116      3351.9601     -2925.5315     -2193.3745    
     52000   503.99135      3360.5158     -2900.9379     -2191.9355    
     52400   502.02129      3415.2671     -486.27485     -2189.6475    
     52800   527.84566      3433.3749     -845.13551     -2190.3489    
     53200   497.18009      3395.2793      557.33456     -2191.4984    
     53600   502.42136      3328.2991     -9378.5434     -2191.2166    
     54000   509.41762      3248.7953      532.75567     -2189.746     
     54400   469.47602      3319.4835     -4368.1374     -2192.4614    
     54800   499.07974      3429.4399     -8371.9033     -2190.8601    
     55200   512.10897      3395.3512     -2719.0054     -2188.9247    
     55600   543.17979      3405.2223     -9711.2109     -2188.9474    
     56000   515.07811      3346.1289      6677.864      -2191.3174    
     56400   494.76426      3364.718      -2878.0348     -2190.0623    
     56800   538.63259      3413.6067      3424.448      -2189.6662    
     57200   523.70043      3451.4053     -4306.3624     -2188.8648    
     57600   473.16818      3549.1762     -2748.2894     -2190.8221    
     58000   501.29137      3429.8569      5125.829      -2189.2198    
     58400   501.71866      3378.4222      1402.8884     -2191.5319    
     58800   507.35894      3400.2863     -3785.4871     -2189.7124    
     59200   519.22049      3313.5232      4616.5107     -2188.3538    
     59600   526.3022       3362.4819      1026.1851     -2190.9769    
     60000   492.46214      3374.365      -861.85263     -2190.7626    
     60400   511.46069      3251.721       2228.1796     -2188.1327    
     60800   533.09049      3252.4938      1546.385      -2188.4518    
     61200   496.12748      3326.1399      5014.0295     -2191.3572    
     61600   508.0695       3410.7269     -15359.047     -2188.3869    
     62000   523.43428      3410.3523      12110.336     -2188.4965    
     62400   524.97483      3433.6197      4018.9551     -2188.532     
     62800   581.41394      3487.2957     -13891.456     -2186.2858    
     63200   531.4498       3457.6718      545.71843     -2189.1272    
     63600   508.30334      3322.933       1327.7113     -2188.74      
     64000   584.42216      3282.1614      2083.2371     -2185.7907    
     64400   527.75151      3438.9957     -2318.6301     -2187.4344    
     64800   510.97642      3437.6219     -7973.9848     -2190.3881    
     65200   509.83437      3321.1453      162.99974     -2186.8284    
     65600   551.221        3285.9639      5415.5625     -2188.7749    
     66000   562.76599      3397.5083     -4053.1409     -2186.6535    
     66400   566.64207      3491.4922      5003.2869     -2188.8726    
     66800   543.93448      3406.3441     -4841.5504     -2186.6263    
     67200   568.41471      3281.5156      1290.7718     -2185.5774    
     67600   532.84199      3411.8382      6357.7605     -2188.9075    
     68000   539.60397      3437.8767     -6268.2119     -2187.3642    
     68400   599.62335      3311.2247      4915.6923     -2186.7715    
     68800   565.97296      3237.7652      2349.1514     -2186.8538    
     69200   566.84849      3247.9204     -3224.1737     -2189.4278    
     69600   570.00053      3259.2894     -4187.234      -2187.0333    
     70000   560.66632      3223.667       5235.2347     -2187.8429    
     70400   540.09896      3326.8668     -6457.4902     -2190.0664    
     70800   547.0524       3354.7655      1027.478      -2187.2787    
     71200   611.68081      3351.5946     -2682.9389     -2183.6569    
     71600   613.56611      3290.8707     -5328.8206     -2186.0868    
     72000   597.14919      3237.3708      5697.688      -2183.238     
     72400   563.85375      3294.6581     -1309.5273     -2185.6562    
     72800   551.67265      3310.871       667.25218     -2187.6113    
     73200   603.79601      3300.5992     -4436.2518     -2185.6178    
     73600   560.03781      3307.7653      3836.0168     -2185.4536    
     74000   581.11988      3296.8487      2190.9318     -2186.1691    
     74400   565.58091      3243.2362      2957.4597     -2187.2192    
     74800   656.53011      3215.2307      93.509748     -2182.6471    
     75200   624.03095      3228.0382      6066.7484     -2184.2624    
     75600   545.64111      3292.8076      1477.529      -2187.1211    
     76000   552.74062      3375.546       1899.0072     -2186.0493    
     76400   593.64708      3443.3328      1435.1821     -2183.5434    
     76800   616.12003      3506.4591     -1215.0753     -2182.0512    
     77200   546.893        3478.5192      9726.9981     -2184.2548    
     77600   577.81707      3476.9068      1009.5426     -2183.2596    
     78000   581.2519       3488.7012     -6863.0204     -2183.8395    
     78400   621.04186      3314.2811      601.42058     -2181.0893    
     78800   601.03935      3290.0855     -1516.0502     -2184.5726    
     79200   582.63689      3327.4126     -1135.309      -2184.4529    
     79600   587.07514      3271.1846     -9175.438      -2183.2391    
     80000   615.00409      3285.26       -10465.81      -2182.7755    
Loop time of 17481.9 on 1 procs for 80000 steps with 308 atoms

Performance: 0.099 ns/day, 242.804 hours/ns, 4.576 timesteps/s, 1.409 katom-step/s
178.9% CPU use with 1 MPI tasks x no OpenMP threads

MPI task timing breakdown:
Section |  min time  |  avg time  |  max time  |%varavg| %total
---------------------------------------------------------------
Pair    | 17473      | 17473      | 17473      |   0.0 | 99.95
Neigh   | 3.8587     | 3.8587     | 3.8587     |   0.0 |  0.02
Comm    | 2.1959     | 2.1959     | 2.1959     |   0.0 |  0.01
Output  | 1.4972     | 1.4972     | 1.4972     |   0.0 |  0.01
Modify  | 1.0868     | 1.0868     | 1.0868     |   0.0 |  0.01
Other   |            | 0.4524     |            |       |  0.00

Nlocal:            308 ave         308 max         308 min
Histogram: 1 0 0 0 0 0 0 0 0 0
Nghost:           7791 ave        7791 max        7791 min
Histogram: 1 0 0 0 0 0 0 0 0 0
Neighs:         165869 ave      165869 max      165869 min
Histogram: 1 0 0 0 0 0 0 0 0 0
FullNghs:        61622 ave       61622 max       61622 min
Histogram: 1 0 0 0 0 0 0 0 0 0

Total # of neighbors = 165869
Ave neighs/atom = 538.53571
Neighbor list builds = 821
Dangerous builds = 0

unfix  f1 # deletes the previously defined fix 1
undump d1 # deletes the previously defined dump 1
#-------------------- Annealing calculation ----------------------------------------------
reset_timestep 0

#---------- output file settings --------------------------------------
dump            d2 all cfg ${Nout} cfg/run.*.${Tfin}K.cfg mass type xs ys zs id type vx vy vz fx fy fz
dump            d2 all cfg 400 cfg/run.*.${Tfin}K.cfg mass type xs ys zs id type vx vy vz fx fy fz
dump            d2 all cfg 400 cfg/run.*.593K.cfg mass type xs ys zs id type vx vy vz fx fy fz
dump_modify     d2 element ${elem}
dump_modify     d2 element Ni N C H
#----------------------------------------------------------------------

#-------------------- Run the simulation -------------------------------------------------
fix f2 all npt temp ${Tfin} ${Tfin} $(100*dt) iso 1.0 1.0 $(1000*dt) # temp conserved
fix f2 all npt temp 593 ${Tfin} $(100*dt) iso 1.0 1.0 $(1000*dt) 
fix f2 all npt temp 593 593 $(100*dt) iso 1.0 1.0 $(1000*dt) 
fix f2 all npt temp 593 593 0.025000000000000001388 iso 1.0 1.0 $(1000*dt) 
fix f2 all npt temp 593 593 0.025000000000000001388 iso 1.0 1.0 0.25 
#fix f2 all nvt temp ${Tfin} ${Tfin} $(100*dt)

run             400000 # 0.1 [ns]
Per MPI rank memory allocation (min/avg/max) = 4.519 | 4.519 | 4.519 Mbytes
   Step          Temp          Volume         Press          TotEng    
         0   615.00409      3285.26       -10465.814     -2182.7755    
       400   603.93302      3331.3624     -3639.2546     -2185.3674    
       800   626.7249       3292.226       3621.5825     -2183.0932    
      1200   590.06369      3227.0579      1938.0295     -2183.324     
      1600   636.48754      3255.9616      6111.0674     -2185.7687    
      2000   663.7          3266.5866      14132.397     -2184.2612    
      2400   561.27438      3270.4109     -796.32227     -2187.5111    
      2800   557.13828      3349.4526     -9260.6385     -2188.9744    
      3200   598.67411      3351.8616     -17219.628     -2185.1355    
      3600   593.28174      3359.0563     -7249.9569     -2186.9605    
      4000   628.10124      3445.9323     -73.685124     -2181.6252    
      4400   576.70707      3606.0588      2697.6251     -2186.2832    
      4800   594.66856      3590.0066     -20414.659     -2183.5972    
      5200   629.05461      3451.2478     -9838.0902     -2183.7313    
      5600   599.03667      3440.7        -6235.5183     -2185.9617    
      6000   577.92429      3459.8576      409.26048     -2187.0131    
      6400   629.62118      3460.0679     -475.15987     -2183.6395    
      6800   563.13447      3380.1408      4187.8218     -2189.0083    
      7200   642.7489       3326.9437      1296.5179     -2184.5329    
      7600   646.80381      3380.4016     -619.27106     -2184.72      
      8000   553.21158      3466.3073      1812.9041     -2187.8241    
      8400   580.83817      3414.8474      7894.4988     -2185.7031    
      8800   596.77854      3316.3244     -1968.0822     -2186.091     
      9200   628.9199       3298.5182      7647.65       -2185.2176    
      9600   575.03822      3382.7095     -1597.6632     -2187.8116    
     10000   540.84558      3417.9253     -3041.6496     -2186.7891    
     10400   579.45983      3389.9661     -9900.7974     -2185.9078    
     10800   554.25208      3358.4458      2133.9479     -2188.0822    
     11200   573.64997      3360.9687      5267.9584     -2186.4079    
     11600   606.45454      3329.4729     -5627.513      -2185.2623    
     12000   596.9604       3279.4978     -7707.4194     -2186.5334    
     12400   585.66596      3278.8603     -7753.6373     -2187.2739    
     12800   587.87381      3259.0468     -3675.5075     -2186.0043    
     13200   566.39391      3210.6411     -716.79422     -2189.8258    
     13600   648.80079      3217.111       9954.6345     -2186.6146    
     14000   628.64117      3262.8058      232.17227     -2186.8445    
     14400   571.57137      3280.5859      2078.8371     -2188.263     
     14800   577.34256      3305.0444     -6541.3335     -2186.5709    
     15200   610.05409      3253.6486      8198.3121     -2186.0955    
     15600   577.19987      3238.1338      1025.6803     -2188.6442    
     16000   545.22899      3305.1693     -7699.3999     -2188.3472    
     16400   569.87754      3314.1507     -7876.2037     -2185.7239    
     16800   651.43465      3412.8717     -5045.4348     -2184.3047    
     17200   539.22671      3498.0657      1591.6891     -2189.4633    
     17600   589.95207      3460.0627     -3161.9709     -2185.0842    
     18000   572.07421      3481.544      -1386.2195     -2187.2975    
     18400   596.20623      3446.1157      6841.9674     -2183.8098    
     18800   520.09957      3350.7597     -1314.9592     -2189.819     
     19200   601.42578      3298.4968      997.9124      -2185.3584    
     19600   572.90743      3360.2678      350.54464     -2187.3789    
     20000   598.77296      3459.0111      1402.4964     -2187.05      
     20400   608.66098      3529.4749      4515.5242     -2184.4543    
     20800   592.86035      3413.1263     -2684.8429     -2186.2588    
     21200   575.22516      3322.5021     -3372.0443     -2186.957     
     21600   661.94181      3358.2169     -1917.1742     -2182.7701    
     22000   625.55957      3347.0906      6203.4021     -2185.0037    
     22400   589.47626      3313.0044      10008.666     -2186.7125    
     22800   598.80563      3214.0817      6748.3659     -2185.0313    
     23200   580.60863      3225.6492      3707.7663     -2187.3325    
     23600   533.96377      3295.4596     -11283.023     -2190.0243    
     24000   605.19841      3266.0657      9529.4114     -2185.5829    
     24400   601.98029      3259.0122      7782.0779     -2184.7133    
     24800   605.96861      3320.3127      7822.9156     -2186.2406    
     25200   629.7817       3323.1826      2787.5032     -2185.0965    
     25600   585.27225      3274.3205      5390.9657     -2188.0488    
     26000   588.61174      3290.0373      2940.8736     -2185.833     
     26400   642.65478      3328.2853      6651.2131     -2184.5445    
     26800   570.08261      3307.4449      6044.555      -2186.4796    
     27200   571.76238      3329.0957      1095.1655     -2186.8378    
     27600   560.62842      3339.852       3653.8943     -2187.5086    
     28000   617.18153      3364.1951      6813.1216     -2183.143     
     28400   599.69694      3426.2108     -3423.0085     -2186.151     
     28800   579.27176      3392.4025      9685.1394     -2187.5377    
     29200   641.79828      3422.1235      2840.4413     -2183.2761    
     29600   592.15295      3387.5482     -1793.2785     -2185.9502    
     30000   614.88624      3369.021       7018.7116     -2185.2733    
     30400   640.48868      3381.3696     -206.22294     -2184.9223    
     30800   594.61343      3458.3686     -11.463443     -2184.7683    
     31200   570.02529      3421.0009     -6649.0331     -2186.9514    
     31600   643.89809      3363.1328      2192.197      -2182.1937    
     32000   596.1099       3389.1332     -8547.8498     -2186.3274    
     32400   625.25811      3403.8581      5146.5122     -2183.913     
     32800   542.05449      3419.2629      2042.9128     -2187.1875    
     33200   563.32202      3554.9733     -5528.1546     -2188.124     
     33600   616.03935      3557.2774      5639.8652     -2183.6754    
     34000   556.79537      3515.0838      7572.6814     -2187.2311    
     34400   566.29767      3444.868      -1622.8099     -2185.4321    
     34800   596.95721      3532.2142      1906.9062     -2185.5114    
     35200   557.35831      3590.864       3749.3472     -2187.1349    
     35600   587.69633      3618.1375      704.55097     -2185.5238    
     36000   624.73435      3491.1944     -721.76019     -2184.2167    
     36400   590.34528      3382.5027     -6227.2694     -2185.457     
     36800   581.81198      3396.1061     -8858.2803     -2185.8206    
     37200   616.10002      3448.1565     -1486.3463     -2184.2418    
     37600   564.66401      3472.0659      3363.2715     -2187.0328    
     38000   613.17484      3484.2316      127.49492     -2185.2126    
     38400   620.78426      3380.2714      11355.039     -2184.6475    
     38800   619.52154      3446.762      -2908.0681     -2185.1815    
     39200   618.13934      3424.2168      1616.1888     -2184.3594    
     39600   574.22373      3548.744      -467.25949     -2186.0862    
     40000   669.01631      3584.0644     -2744.6507     -2182.9181    
     40400   611.23062      3492.1044     -5446.1544     -2184.1599    
     40800   591.70589      3439.3974      6292.3274     -2186.1351    
     41200   559.00098      3437.3257     -32.006534     -2187.4875    
     41600   621.41909      3393.0038     -3835.0682     -2184.2845    
     42000   584.72895      3372.1406     -5087.7263     -2187.854     
     42400   609.46574      3251.3428      8167.2737     -2184.9719    
     42800   633.54122      3277.1467      5551.6724     -2185.0912    
     43200   595.12166      3354.9506      5409.7356     -2188.4984    
     43600   608.15593      3350.4151      1398.9486     -2186.8704    
     44000   665.06824      3260.4243      5713.7537     -2183.3738    
     44400   572.90104      3244.4789     -6763.8578     -2186.4463    
     44800   553.15044      3233.9087      7601.2476     -2189.0579    
     45200   606.49984      3243.0849     -1008.1216     -2185.5411    
     45600   561.73003      3205.2509     -3620.9604     -2189.3653    
     46000   593.05903      3251.3155      4910.0581     -2188.21      
     46400   587.72575      3244.3851      5911.0021     -2185.4363    
     46800   553.90467      3353.9485     -5150.5691     -2188.7913    
     47200   643.60657      3357.4726      3705.8341     -2184.6782    
     47600   576.09395      3298.2382      2183.9465     -2187.6182    
     48000   563.40146      3281.1307      1491.1448     -2187.0863    
     48400   618.42881      3235.0413      4521.2583     -2185.814     
     48800   630.24626      3211.825       3988.6741     -2184.0268    
     49200   593.91715      3275.9277     -1055.4199     -2186.6307    
     49600   593.88609      3311.9759      3770.1479     -2189.1086    
     50000   584.35586      3213.7191      1751.3459     -2186.0385    
     50400   596.47879      3213.1888      77.548718     -2186.9348    
     50800   634.72295      3225.0331     -692.78049     -2184.6062    
     51200   585.84066      3336.1961     -1882.2654     -2187.1239    
     51600   611.03816      3301.0297      5052.761      -2186.9471    
     52000   557.17492      3284.4015      3407.4515     -2187.8333    
     52400   624.14077      3322.4597      1521.7766     -2185.1803    
     52800   586.77358      3292.7308      11564.744     -2188.8704    
     53200   622.92295      3189.8574      7369.0408     -2185.1778    
     53600   622.93415      3217.6381      1065.972      -2185.9182    
     54000   587.60224      3265.976       1169.426      -2188.3465    
     54400   642.18965      3262.4048     -5591.9534     -2183.9094    
     54800   597.60929      3248.7387     -132.42457     -2186.3955    
     55200   593.47047      3331.2739     -2737.5198     -2187.0274    
     55600   626.54375      3331.888       8524.4903     -2185.4665    
     56000   596.09631      3279.0545      4110.9742     -2185.1868    
     56400   618.04499      3182.516       2544.9661     -2186.5581    
     56800   594.59279      3178.833      -9620.7143     -2187.2686    
     57200   636.67902      3194.4508      2228.5675     -2186.8395    
     57600   572.02912      3265.0149     -2138.6784     -2190.0816    
     58000   636.44052      3314.2677     -369.02358     -2187.8233    
     58400   598.0969       3317.606      -5889.4156     -2187.8181    
     58800   607.61591      3228.7768     -2588.6539     -2186.2819    
     59200   574.11151      3208.5769      2140.3508     -2188.6649    
     59600   646.99423      3274.873      -1087.7504     -2185.2413    
     60000   580.26234      3258.0285     -3625.2249     -2188.8032    
     60400   584.11448      3217.6016     -662.59196     -2185.2273    
     60800   607.11024      3250.691       3503.853      -2188.4504    
     61200   592.28297      3312.7561     -2912.0045     -2186.9173    
     61600   546.41221      3331.398      -7525.952      -2188.5584    
     62000   603.58166      3226.9306     -3215.7212     -2189.2575    
     62400   625.2045       3146.3183      6765.3982     -2188.1279    
     62800   622.18417      3129.4447      7047.7569     -2188.2154    
     63200   574.95453      3162.3448      6260.9526     -2190.1816    
     63600   608.09173      3281.994      -1796.0062     -2186.5376    
     64000   590.63525      3330.7548     -1988.2237     -2187.8245    
     64400   619.58254      3302.1522      9902.8896     -2187.4016    
     64800   634.16162      3337.2471      8162.785      -2187.9102    
     65200   580.82811      3371.1119      131.75233     -2189.3883    
     65600   606.65099      3379.8353     -14.724592     -2186.4011    
     66000   571.59429      3361.0771      7471.4999     -2188.4514    
     66400   629.56438      3404.3345      15988.23      -2184.116     
     66800   557.44646      3497.1172      4668.4679     -2185.7968    
     67200   558.16894      3494.7979     -750.45792     -2188.3341    
     67600   590.28823      3413.5204     -4357.7403     -2187.7325    
     68000   608.54456      3307.5619      5891.004      -2186.5961    
     68400   518.71178      3309.6955      1587.074      -2191.9353    
     68800   622.93645      3280.4143     -3725.2884     -2188.3789    
     69200   594.72234      3195.3523      7352.7072     -2188.1673    
     69600   581.98554      3185.0692      6857.3047     -2186.246     
     70000   606.56093      3244.6575     -866.14592     -2189.0405    
     70400   561.31319      3312.935       720.49874     -2186.7423    
     70800   577.33685      3294.579       130.47516     -2188.4841    
     71200   580.37135      3234.5849      7198.6123     -2188.1915    
     71600   581.85446      3200.3323     -370.42519     -2188.6692    
     72000   585.79327      3254.6002      4546.0248     -2187.6101    
     72400   626.28665      3280.9401      6364.0336     -2186.0075    
     72800   559.09723      3276.6167      7887.7287     -2190.1203    
     73200   586.11736      3284.1553     -2408.6581     -2186.4116    
     73600   607.68895      3205.3435     -10571.888     -2187.7893    
     74000   585.78         3145.5151     -1534.9242     -2187.9684    
     74400   595.53313      3118.193      -167.71604     -2188.0916    
     74800   597.77156      3135.5484      500.77607     -2188.0558    
     75200   631.49984      3248.5813     -5738.3681     -2185.9824    
     75600   604.40162      3289.3157      5584.8261     -2187.867     
     76000   593.454        3306.7699     -1114.512      -2188.829     
     76400   581.17262      3348.6941      8891.7566     -2186.6013    
     76800   619.20838      3369.8583      330.54782     -2185.1802    
     77200   610.18999      3330.1601     -3846.3926     -2188.6009    
     77600   582.191        3335.215      -2098.5343     -2188.4254    
     78000   587.9849       3396.7516     -4594.5393     -2186.8392    
     78400   528.14207      3354.8886     -3894.6409     -2190.8858    
     78800   582.21803      3295.0875     -2638.7509     -2186.8127    
     79200   588.66733      3209.4067     -179.10525     -2188.0862    
     79600   583.82768      3299.7957     -3444.3165     -2189.9356    
     80000   649.17213      3279.7769     -2687.6614     -2186.9729    
     80400   610.51632      3331.5966      622.53384     -2186.1307    
     80800   565.89887      3394.7608     -9174.4435     -2188.1308    
     81200   604.91955      3316.2809      10181.786     -2187.9677    
     81600   642.87758      3229.3253      11253.479     -2185.122     
     82000   625.26812      3224.9101      931.57608     -2187.4056    
     82400   589.09081      3298.528       1874.4533     -2189.008     
     82800   594.02773      3381.262      -9579.7547     -2187.8199    
     83200   588.03849      3321.5881      6438.8844     -2187.241     
     83600   640.38968      3304.6984     -4175.9225     -2184.8641    
     84000   616.30919      3308.4977      3460.8409     -2187.261     
     84400   575.00884      3245.1588      7508.9866     -2189.9787    
     84800   591.92431      3327.9947     -7330.5981     -2187.9675    
     85200   610.73537      3343.8157      6510.7532     -2185.7777    
     85600   602.89343      3367.9572      710.5772      -2187.1259    
     86000   572.36434      3320.3725      1163.3426     -2188.6814    
     86400   606.34577      3256.299       2842.6387     -2186.3323    
     86800   603.25198      3269.1566     -3519.1913     -2187.2103    
     87200   594.61964      3231.3693     -4292.0572     -2189.2777    
     87600   614.03029      3236.3221     -8801.2405     -2187.3605    
     88000   589.69027      3155.66        76.529223     -2189.1613    
     88400   607.44468      3265.8801     -2849.7382     -2187.8381    
     88800   606.96585      3237.9852     -9074.8051     -2187.4955    
     89200   599.16466      3254.3462      4255.3256     -2185.5887    
     89600   582.50168      3226.6693     -4429.3375     -2187.7114    
     90000   558.58903      3209.6025     -4615.6545     -2190.2009    
     90400   618.84637      3228.2012      2812.2979     -2188.0107    
     90800   621.43106      3250.0473      774.41805     -2187.5829    
     91200   539.14239      3261.5472     -7242.766      -2190.1252    
     91600   609.49229      3323.6668     -5547.1965     -2186.4782    
     92000   543.43148      3442.5337     -6785.0128     -2191.3857    
     92400   594.32478      3375.1046     -4290.7962     -2186.2521    
     92800   573.24341      3275.4481     -565.09799     -2189.5273    
     93200   570.90755      3198.8437      12989.584     -2188.7695    
     93600   608.02011      3234.6057      2644.1757     -2186.7023    
     94000   590.14227      3264.6293      1220.8863     -2188.8168    
     94400   635.7024       3331.0894     -2060.4569     -2184.3412    
     94800   591.94473      3306.7827      3245.6827     -2187.6894    
     95200   584.9367       3270.9102     -12140.562     -2189.5488    
     95600   609.9943       3234.7953     -4990.4861     -2187.4083    
     96000   601.37267      3253.9572      13000.93      -2189.1538    
     96400   605.79969      3262.5741      13816.415     -2188.6904    
     96800   583.29711      3287.6954     -5350.8137     -2187.7128    
     97200   597.61305      3199.6249     -5350.277      -2185.8979    
     97600   573.02581      3278.5733     -4228.8325     -2189.134     
     98000   577.3862       3268.2814     -7192.2588     -2186.4705    
     98400   573.50267      3274.0549      6512.4184     -2188.5214    
     98800   566.97803      3271.3243      15177.064     -2189.2131    
     99200   648.54941      3298.5042     -3800.6943     -2185.8642    
     99600   597.35312      3354.8336     -5275.0252     -2187.645     
    100000   625.10162      3446.9534      7255.5547     -2186.5023    
    100400   598.23605      3474.5229      3308.8128     -2189.7451    
    100800   595.59572      3438.2335     -6624.4625     -2187.2506    
    101200   622.05004      3469.2222     -5277.7941     -2186.3387    
    101600   580.8726       3475.5916      4092.1869     -2187.7137    
    102000   642.26716      3442.8987      14407.763     -2184.151     
    102400   604.9329       3393.5297     -238.0475      -2188.3234    
    102800   582.95355      3274.2786      1177.3454     -2187.4783    
    103200   671.45687      3226.753       5406.939      -2184.8846    
    103600   609.88016      3204.3893      8599.1729     -2186.6401    
    104000   599.81629      3239.9092     -5634.1414     -2188.3631    
    104400   583.43606      3217.1112     -14379.928     -2187.0863    
    104800   589.7195       3262.9224     -6.4436502     -2188.0724    
    105200   550.85429      3231.0861     -9313.6767     -2190.6809    
    105600   611.27589      3188.9732      413.0301      -2187.038     
    106000   586.14456      3252.5393     -4884.6086     -2188.6681    
    106400   574.98331      3231.0161      11932.76      -2188.8926    
    106800   599.89054      3271.095      -4970.6792     -2186.8857    
    107200   551.87467      3312.4442      6013.7722     -2189.813     
    107600   559.66048      3321.4758     -4976.3698     -2188.2761    
    108000   612.99867      3355.1795     -2257.858      -2185.2616    
    108400   613.62301      3376.3908     -682.6542      -2187.267     
    108800   571.07333      3384.2002      5653.4806     -2187.2607    
    109200   596.52607      3419.1939      1161.2975     -2187.1911    
    109600   563.67828      3403.4554      2492.7979     -2188.7057    
    110000   601.83911      3394.9901      805.2055      -2187.6877    
    110400   634.95474      3363.9892     -9274.5218     -2186.9392    
    110800   560.13167      3279.2491     -6071.6428     -2189.9538    
    111200   611.62506      3340.1027     -4168.8931     -2188.3517    
    111600   627.8524       3322.4664      1793.0916     -2186.7905    
    112000   616.89293      3313.424       3406.7796     -2186.3429    
    112400   597.26215      3335.8112     -2344.0514     -2187.8503    
    112800   637.88512      3261.3356      151.44137     -2186.1327    
    113200   546.47386      3127.935      -8351.7767     -2190.5569    
    113600   609.57808      3182.1458      2625.6684     -2188.056     
    114000   554.9894       3262.435       3025.0732     -2190.4088    
    114400   598.02867      3319.9469     -2009.7732     -2187.8479    
    114800   592.07633      3350.8713      1503.0028     -2187.1218    
    115200   543.66474      3287.381       411.16435     -2190.1275    
    115600   597.43512      3321.3339     -1810.5684     -2187.1122    
    116000   591.84785      3372.6926     -5567.9751     -2186.5874    
    116400   607.83874      3371.2251     -1747.2643     -2188.3717    
    116800   592.25381      3333.0946     -566.18298     -2186.1041    
    117200   561.27873      3418.1814      1917.6384     -2189.6653    
    117600   634.84144      3422.2554      8657.329      -2185.7995    
    118000   572.456        3400.6251     -10592.166     -2186.2316    
    118400   533.86476      3400.9454     -3567.6218     -2189.7627    
    118800   581.13176      3441.0286      2634.3711     -2186.2819    
    119200   541.96338      3377.3781      5046.3918     -2189.5886    
    119600   566.7075       3309.7527      3526.438      -2188.4767    
    120000   629.07311      3323.1703      2598.6185     -2187.5264    
    120400   615.7161       3339.9033      9941.9895     -2184.6892    
    120800   613.98858      3275.0976      2361.6351     -2187.5585    
    121200   614.92725      3288.7975     -7000.8776     -2187.2895    
    121600   605.23688      3307.8664     -2008.157      -2185.6149    
    122000   586.97638      3262.5986     -6370.5113     -2186.6605    
    122400   568.84403      3245.2163     -10321.064     -2188.5935    
    122800   646.53578      3244.3846     -9185.3584     -2186.7223    
    123200   584.09063      3276.156      -6372.8158     -2187.5342    
    123600   605.17721      3265.6904      1575.5638     -2188.4232    
    124000   569.41521      3310.1014      1826.8199     -2189.3143    
    124400   619.30321      3354.1215     -9148.8422     -2185.0553    
    124800   587.34971      3342.4569      3257.6208     -2187.116     
    125200   565.34639      3296.3087     -3302.7122     -2189.7015    
    125600   595.18261      3155.715       1320.6354     -2187.5426    
    126000   634.27775      3207.6901     -1841.8041     -2186.4962    
    126400   612.18727      3210.2932      6152.5642     -2186.1376    
    126800   622.651        3201.205       5061.4139     -2187.945     
    127200   623.4128       3230.9087     -1707.8182     -2187.8698    
    127600   625.79444      3259.7156      831.58422     -2184.3762    
    128000   602.30324      3294.1693     -6668.6598     -2190.0677    
    128400   578.43297      3278.1562     -438.7861      -2187.529     
    128800   544.68361      3276.9806      3914.8955     -2189.1112    
    129200   654.4452       3296.5433     -203.859       -2185.2104    
    129600   564.02239      3324.1453      10414.193     -2188.0301    
    130000   557.27534      3311.1078      4956.5522     -2186.5584    
    130400   605.46935      3325.3933     -541.28663     -2188.5229    
    130800   613.13118      3308.0373      2688.9429     -2186.7943    
    131200   583.20185      3241.1037      192.173       -2190.7125    
    131600   581.94918      3275.9658     -15696.241     -2187.1651    
    132000   607.81233      3304.1815      3335.2361     -2186.9821    
    132400   565.73278      3379.5193     -3261.4594     -2189.7922    
    132800   559.94785      3366.0749     -1912.2414     -2187.3009    
    133200   586.00207      3287.1926      5627.7076     -2188.8276    
    133600   622.4024       3257.7414      17063.284     -2186.6974    
    134000   612.47624      3284.1241     -4606.0827     -2186.6475    
    134400   559.6          3309.7163     -11381.704     -2188.0476    
    134800   609.95294      3233.7971     -4858.3827     -2185.1438    
    135200   572.39869      3214.6072     -4301.8147     -2189.7009    
    135600   585.33162      3176.2357      0.79690848    -2187.3275    
    136000   610.83907      3243.8478     -6029.7613     -2188.8186    
    136400   616.6347       3273.4478     -4646.81       -2186.7789    
    136800   596.24139      3279.5529     -2222.3732     -2188.6349    
    137200   575.33202      3311.4746     -2215.3931     -2188.0281    
    137600   602.36477      3260.3038     -17274.857     -2187.7208    
    138000   513.08485      3229.3799     -13602.689     -2191.9905    
    138400   600.20329      3174.5665     -17638.151     -2186.9012    
    138800   548.94879      3149.9032      5623.0367     -2189.779     
    139200   589.28236      3222.8016      2095.29       -2188.6843    
    139600   614.07734      3197.357       6117.0102     -2187.3726    
    140000   575.55353      3209.9159     -2188.7905     -2189.4121    
    140400   633.77012      3346.1682     -4941.1116     -2183.4274    
    140800   567.24653      3338.4439      5270.908      -2189.2755    
    141200   570.05624      3306.6593      10813.002     -2188.9598    
    141600   615.2751       3346.8384      1984.757      -2186.8191    
    142000   578.02646      3408.1829     -5075.8318     -2187.3095    
    142400   575.63775      3335.568      -2491.9486     -2188.5025    
    142800   530.39676      3289.4329      3614.3957     -2189.6727    
    143200   588.44516      3253.2063      233.53861     -2186.6909    
    143600   530.06568      3257.9957      620.38746     -2191.4774    
    144000   637.43904      3210.697       15847.54      -2186.2138    
    144400   625.54537      3252.7475     -6452.4611     -2188.0165    
    144800   571.52789      3250.6308     -16526.213     -2185.9323    
    145200   604.07282      3207.6244     -646.13369     -2189.2916    
    145600   623.90725      3208.9033      7478.885      -2187.2572    
    146000   653.07183      3279.0371     -6060.8656     -2185.3672    
    146400   574.85318      3430.3147     -11379.711     -2187.9368    
    146800   620.94672      3439.1783     -7429.3979     -2187.4945    
    147200   578.95727      3329.0567      5145.2687     -2189.1422    
    147600   617.39805      3249.5214      18760.325     -2185.9424    
    148000   571.31842      3376.2154      4406.0244     -2185.341     
    148400   624.77775      3383.3268     -1058.2952     -2187.3429    
    148800   557.22811      3286.7837      11286.901     -2189.3217    
    149200   579.46977      3260.5624     -9739.3958     -2188.3697    
    149600   568.96485      3243.0307      20.120645     -2188.5201    
    150000   567.27374      3246.5664     -2914.4656     -2188.7046    
    150400   602.87744      3275.3792     -610.85807     -2187.1997    
    150800   609.93035      3295.5999     -6912.5362     -2185.7539    
    151200   576.50951      3279.0796     -3121.6382     -2188.2039    
    151600   567.0723       3268.9053     -4758.1757     -2188.8945    
    152000   570.98621      3288.515      -11154.034     -2188.084     
    152400   552.09183      3249.3834     -7048.7303     -2189.9162    
    152800   608.9958       3234.6813      936.07822     -2187.1578    
    153200   603.34369      3285.6086      3803.8726     -2187.9479    
    153600   553.12008      3215.3709      7672.7658     -2190.2464    
    154000   634.82872      3244.9873      273.60217     -2187.1993    
    154400   579.65138      3246.2188     -2309.9167     -2188.0681    
    154800   594.61072      3269.1119     -7911.6783     -2187.5464    
    155200   604.53304      3146.9268      1928.787      -2187.2452    
    155600   572.80323      3247.0395      10266.64      -2189.4287    
    156000   622.23387      3324.81        2837.24       -2189.4979    
    156400   586.07737      3228.0921     -1241.6485     -2188.9123    
    156800   592.92937      3139.9759     -2208.3651     -2190.895     
    157200   601.06383      3117.2407     -658.43078     -2187.9064    
    157600   601.5351       3203.1769     -4499.9523     -2188.5092    
    158000   550.39864      3207.9014      5937.5367     -2190.7752    
    158400   570.1742       3276.6276      6536.6494     -2190.2021    
    158800   612.70742      3196.7523      5853.5528     -2187.5691    
    159200   588.96432      3207.6609      9737.284      -2189.1183    
    159600   574.3269       3210.174       7307.5187     -2191.1295    
    160000   609.97656      3197.7953     -7251.0746     -2188.1378    
    160400   620.99124      3175.635      -14512.234     -2186.7247    
    160800   562.7885       3143.9414      1118.0448     -2189.768     
    161200   601.09406      3238.5865     -3332.9866     -2188.3343    
    161600   594.69661      3200.8049      9042.9314     -2187.4139    
    162000   583.19428      3111.0439      13129.158     -2190.0177    
    162400   619.60631      3185.6191      5306.7408     -2188.1807    
    162800   570.53061      3256.4568     -9886.8089     -2187.7413    
    163200   563.40665      3288.3769     -5414.1032     -2190.8332    
    163600   554.2607       3281.9777     -7183.6427     -2188.7341    
    164000   628.9313       3280.5204     -4475.7326     -2189.1479    
    164400   569.2155       3228.4223     -3564.8858     -2190.0303    
    164800   601.17201      3220.3223     -4988.5702     -2187.7164    
    165200   521.67233      3248.5413      275.12767     -2190.9543    
    165600   602.93388      3273.7677      3494.2092     -2190.8123    
    166000   616.07819      3290.1231      1112.6904     -2187.846     
    166400   589.10854      3257.2092     -8398.4088     -2187.3347    
    166800   583.6702       3178.878       5597.2201     -2190.4518    
    167200   583.36029      3271.7492     -2040.2123     -2189.5294    
    167600   570.92989      3309.2761     -9461.2291     -2190.6828    
    168000   593.31958      3253.2243      1992.8649     -2188.6323    
    168400   602.1836       3159.9555      8213.7311     -2187.8145    
    168800   579.69625      3242.9383     -4450.6091     -2189.5298    
    169200   598.40858      3251.2217      2439.0437     -2187.0098    
    169600   570.39807      3200.8069      2406.7935     -2188.4839    
    170000   608.57311      3111.5651      9556.7598     -2188.5043    
    170400   562.11324      3190.5172     -4386.5154     -2191.9945    
    170800   535.88565      3254.407      -6465.3424     -2188.815     
    171200   541.65814      3221.1335     -5213.5602     -2188.6192    
    171600   633.91179      3164.9551      1288.8787     -2186.6047    
    172000   584.71136      3138.409      -2812.308      -2188.0292    
    172400   571.38168      3102.3748      7783.4692     -2191.44      
    172800   618.53585      3154.5249      4296.9178     -2187.5674    
    173200   559.69574      3205.9784      10729.384     -2188.5567    
    173600   575.93605      3284.4867     -492.89981     -2189.4298    
    174000   576.83676      3282.7026     -690.37167     -2189.3939    
    174400   605.81141      3292.9112      2807.6457     -2188.9216    
    174800   591.28594      3404.8558     -9698.5031     -2188.7496    
    175200   608.85611      3363.1231     -2900.2005     -2187.6341    
    175600   599.99126      3391.3178     -765.54932     -2190.9485    
    176000   593.2829       3359.274       26.733402     -2188.0627    
    176400   608.61114      3333.2628      3306.9846     -2186.2091    
    176800   598.35083      3356.8526      2324.7727     -2188.5915    
    177200   588.03441      3415.7768     -4626.1226     -2187.11      
    177600   587.14817      3359.3674      2913.8734     -2187.3595    
    178000   588.51502      3379.6427     -2253.623      -2189.8483    
    178400   612.74113      3377.3607     -5779.1085     -2188.3924    
    178800   607.07575      3290.3633     -2960.0093     -2187.0809    
    179200   608.83152      3414.3534     -5722.8707     -2189.5276    
    179600   609.03147      3382.9548     -2782.4379     -2186.1093    
    180000   617.52584      3395.9272     -5762.5767     -2188.3172    
    180400   588.51208      3439.7068     -4506.4465     -2189.1752    
    180800   643.54545      3424.3121      18027.353     -2185.5363    
    181200   545.10921      3368.2451      10671.257     -2189.6356    
    181600   592.75895      3316.6017      2245.4366     -2187.4824    
    182000   591.18846      3281.5177     -7704.9088     -2188.7734    
    182400   564.01563      3190.3361      3158.8133     -2190.676     
    182800   615.01075      3228.1314     -13.681192     -2188.031     
    183200   635.13845      3255.6162      6103.0324     -2185.8422    
    183600   569.18246      3290.0374     -4877.5239     -2189.0805    
    184000   562.28108      3294.5074     -9318.3046     -2190.6298    
    184400   584.34535      3295.4864     -5870.4521     -2189.3806    
    184800   570.00005      3289.6498      6231.3469     -2189.094     
    185200   608.1697       3273.3623      16788.738     -2187.6104    
    185600   586.96679      3380.7948     -37.20132      -2189.224     
    186000   594.91416      3394.6505     -126.70723     -2187.0031    
    186400   663.14627      3378.6593      6419.1147     -2184.8393    
    186800   609.525        3310.0147     -4292.4092     -2188.328     
    187200   578.62801      3303.4911     -11078.918     -2189.0907    
    187600   563.74974      3235.552      -397.68873     -2190.5263    
    188000   633.76561      3245.5822     -5744.6505     -2185.9372    
    188400   602.67218      3244.6073     -2603.5752     -2188.4754    
    188800   562.93198      3287.7778     -8769.154      -2190.805     
    189200   595.4007       3331.3453     -1152.9659     -2187.7809    
    189600   621.25636      3302.4339      6685.966      -2188.2202    
    190000   627.21566      3417.8906      1030.8411     -2186.7023    
    190400   565.7678       3395.0372     -4756.0675     -2188.4813    
    190800   575.57632      3350.3547      1646.9807     -2189.6788    
    191200   620.81114      3358.9734      13011.794     -2187.963     
    191600   591.26176      3501.2233     -1742.1768     -2189.3598    
    192000   592.64789      3488.6714     -3831.0292     -2185.9229    
    192400   613.73514      3524.2844     -4920.7413     -2188.1983    
    192800   579.60039      3429.5211     -5560.823      -2188.6405    
    193200   669.94536      3368.8989     -460.43788     -2185.9247    
    193600   588.18923      3320.9226      900.60231     -2188.9332    
    194000   601.24024      3276.1679     -6563.9638     -2189.3934    
    194400   619.27194      3334.4753     -5498.6228     -2186.803     
    194800   588.65082      3405.0873      9003.1781     -2187.6558    
    195200   557.21872      3388.7091     -3955.8857     -2190.7487    
    195600   593.17853      3397.055      -2589.5289     -2189.7235    
    196000   587.86023      3393.5486     -590.70818     -2188.1936    
    196400   567.84956      3258.1924      3851.4717     -2190.8912    
    196800   622.08149      3333.4172      10350.193     -2188.4629    
    197200   617.73678      3396.2379     -10208.458     -2188.4917    
    197600   570.99934      3360.3541     -6117.7349     -2188.8814    
    198000   629.94098      3304.6015     -4186.0132     -2186.7289    
    198400   579.56507      3308.2336      1268.7635     -2189.9094    
    198800   612.19187      3295.1783     -3814.3253     -2188.2       
    199200   603.99429      3351.7939      7651.4063     -2185.7398    
    199600   557.42097      3306.1072      4575.0234     -2189.4109    
    200000   623.08601      3267.4637      1119.8992     -2187.9659    
    200400   586.14612      3365.909      -1258.4113     -2189.0002    
    200800   581.08518      3325.512      -2608.9234     -2189.6125    
    201200   617.98902      3296.4914      7312.2797     -2186.1311    
    201600   587.95427      3360.1716      1142.7667     -2189.0628    
    202000   634.81538      3459.7304      5274.964      -2187.4254    
    202400   620.68377      3425.0435      1361.8687     -2187.747     
    202800   609.00783      3433.4428      3439.0376     -2188.2974    
    203200   584.51355      3399.5825     -5552.5902     -2188.5848    
    203600   656.31803      3356.5092     -6530.2183     -2185.4586    
    204000   579.51443      3330.9211     -674.76766     -2188.7431    
    204400   591.08956      3335.2512      3337.3415     -2187.4947    
    204800   624.19272      3308.8487     -2595.3207     -2186.9659    
    205200   570.26532      3304.7857      2656.6066     -2189.4978    
    205600   593.04368      3137.7651      6662.9105     -2189.5722    
    206000   615.90963      3134.2087      3598.5699     -2187.0177    
    206400   591.61029      3138.0872     -2956.3124     -2191.4599    
    206800   623.01972      3242.0414     -5325.8298     -2189.2743    
    207200   599.79497      3243.7748      2617.6918     -2187.0659    
    207600   586.16801      3206.0337      6037.111      -2190.4935    
    208000   606.12853      3206.3051      5032.4608     -2185.9788    
    208400   593.47549      3180.2251     -11098.951     -2189.7543    
    208800   564.08844      3208.7941     -13699.991     -2189.7338    
    209200   633.22023      3270.5393     -616.40262     -2185.6815    
    209600   572.22768      3284.4518      6830.3895     -2189.8918    
    210000   599.49685      3303.3059      6416.7474     -2186.888     
    210400   606.45519      3198.0467      6358.7961     -2188.6444    
    210800   568.57169      3211.1739      4204.3765     -2188.4724    
    211200   609.74248      3289.0007     -1923.2084     -2188.1334    
    211600   589.46267      3294.2602     -526.21854     -2189.9422    
    212000   592.4895       3241.0815      2871.9625     -2190.5703    
    212400   579.83262      3287.2456      1105.4514     -2186.8722    
    212800   609.63837      3279.7238      839.51983     -2189.924     
    213200   603.79964      3213.173       1704.9719     -2189.2947    
    213600   618.8702       3286.7712     -2841.9187     -2188.349     
    214000   594.57716      3314.5878     -10377.06      -2188.1075    
    214400   577.71673      3212.5834      5947.1523     -2191.3352    
    214800   558.81849      3171.2918      6692.1861     -2188.2163    
    215200   582.61913      3145.2577     -3619.8688     -2191.1094    
    215600   568.24978      3169.5805     -3013.6427     -2188.9169    
    216000   574.93688      3178.3167      5815.2188     -2189.1037    
    216400   609.55018      3209.4486     -1018.3234     -2187.3514    
    216800   596.95042      3185.8767      11403.709     -2189.6961    
    217200   588.20598      3218.4304      4979.4276     -2190.043     
    217600   612.11147      3300.7734      1432.3691     -2188.766     
    218000   603.4552       3348.6647     -6604.1627     -2187.1875    
    218400   579.47679      3215.3554      1991.6197     -2190.4317    
    218800   600.0538       3187.0583     -806.45033     -2189.9203    
    219200   596.7692       3225.4975      5763.7879     -2188.3041    
    219600   623.77411      3271.3363      9767.0927     -2188.6663    
    220000   559.67041      3186.8489      2097.4941     -2192.6305    
    220400   609.496        3126.014       1607.9127     -2188.3726    
    220800   577.45512      3143.2211     -879.65783     -2190.5941    
    221200   561.39093      3220.0548     -1083.4351     -2191.2001    
    221600   612.5096       3279.1289     -10802.8       -2188.6416    
    222000   541.67737      3269.8869     -13810.805     -2189.415     
    222400   602.33295      3281.647      -4539.7838     -2188.3336    
    222800   549.28088      3206.7259      11091.072     -2192.9582    
    223200   606.76065      3119.1659     -1055.4019     -2187.8142    
    223600   610.62703      3079.7309     -230.73309     -2189.9611    
    224000   575.42736      3141.5809     -7497.4327     -2190.1954    
    224400   612.69378      3126.184      -1729.7337     -2185.2318    
    224800   626.02326      3172.6036      950.1321      -2189.0376    
    225200   594.73468      3177.4909     -7440.397      -2188.4669    
    225600   563.3322       3187.9316      4349.7161     -2190.5559    
    226000   639.52992      3224.7692      5944.5203     -2185.4761    
    226400   566.61678      3249.6736      3848.0601     -2189.9565    
    226800   547.8084       3291.1459     -14722.144     -2189.1799    
    227200   593.33659      3312.7132      3326.4541     -2187.2832    
    227600   591.21824      3265.5937      10794.312     -2189.2963    
    228000   591.5593       3316.3031      8830.8447     -2189.9417    
    228400   627.55993      3304.3215      922.52772     -2186.8064    
    228800   579.25305      3327.6347      7027.9469     -2188.9275    
    229200   531.01686      3333.6317      3344.3472     -2192.3462    
    229600   584.35851      3327.5368     -6188.0455     -2188.9795    
    230000   562.75948      3331.9229     -11303.88      -2188.2328    
    230400   606.00365      3314.816       746.17129     -2185.1595    
    230800   614.31197      3311.092      -5145.8908     -2188.5701    
    231200   592.18035      3284.0391      4826.3763     -2190.5988    
    231600   568.80174      3337.9638     -13006.97      -2188.6195    
    232000   554.64381      3300.0396     -1196.1777     -2192.1073    
    232400   592.14037      3233.6448      11129.249     -2189.5127    
    232800   624.99914      3156.0852      15560.373     -2187.8937    
    233200   520.91287      3254.2879      8424.9962     -2192.238     
    233600   614.72841      3289.4999     -2050.3225     -2187.6413    
    234000   579.64261      3297.5619      149.16806     -2190.9272    
    234400   575.13015      3301.472      -5234.6414     -2189.6269    
    234800   592.70848      3219.525      -1380.3992     -2189.4706    
    235200   588.58868      3161.4548      8901.8256     -2190.4201    
    235600   626.15226      3181.3455      12274.06      -2189.4122    
    236000   599.09534      3334.6187     -3978.0005     -2188.6854    
    236400   611.02784      3425.9233     -5624.0658     -2186.7801    
    236800   579.76129      3466.7955     -2797.4337     -2190.3203    
    237200   645.77329      3382.2911     -3221.9549     -2184.5342    
    237600   587.93651      3370.2931     -4942.1328     -2187.7226    
    238000   569.70651      3365.1322      3611.9751     -2190.5027    
    238400   618.14253      3357.4159     -4243.1686     -2187.7924    
    238800   541.44868      3319.3943     -13945.044     -2191.8377    
    239200   624.1416       3275.1857     -3717.8669     -2187.2204    
    239600   575.92623      3294.8589     -1833.6108     -2190.5376    
    240000   629.56204      3299.5423      1111.9555     -2188.8406    
    240400   574.28632      3289.3216      1994.7513     -2189.8529    
    240800   578.52441      3204.4898     -6114.1115     -2189.0455    
    241200   551.59787      3266.993      -11347.709     -2189.7566    
    241600   576.43073      3276.0682     -3931.2196     -2190.9786    
    242000   589.55248      3319.5667      3130.001      -2188.5357    
    242400   585.258        3450.0948     -4523.5069     -2190.5174    
    242800   582.55976      3369.4105      3231.8448     -2188.3345    
    243200   596.68644      3360.3571      7213.812      -2189.1275    
    243600   648.70814      3323.9031      1453.4604     -2185.013     
    244000   604.52562      3297.7627      5264.6091     -2189.4553    
    244400   574.3994       3324.3013     -6229.8701     -2188.3315    
    244800   583.82368      3374.5054     -1966.4549     -2190.8391    
    245200   586.15252      3282.8932      6961.8606     -2189.8127    
    245600   605.92136      3367.6497     -3008.5268     -2187.902     
    246000   607.74689      3373.8718     -90.397961     -2188.5097    
    246400   665.61719      3388.254       3338.829      -2184.9613    
    246800   568.64836      3327.853      -1644.9402     -2187.9746    
    247200   548.64357      3309.3584     -671.7415      -2191.0709    
    247600   575.78139      3227.3219      4042.1034     -2188.6627    
    248000   573.69592      3218.1585     -2729.6301     -2189.7152    
    248400   612.62697      3299.805      -3381.711      -2187.958     
    248800   580.79919      3446.4897     -319.46688     -2189.7915    
    249200   594.31332      3486.0889     -9049.6458     -2185.066     
    249600   554.20847      3390.3223      4943.4181     -2189.6856    
    250000   561.00608      3330.779      -1139.3456     -2190.7154    
    250400   566.22317      3361.7426      2272.7841     -2189.6945    
    250800   628.8811       3378.4407      181.09381     -2186.3452    
    251200   602.78574      3272.6498     -1826.7909     -2187.8651    
    251600   627.72659      3211.0484     -1149.8452     -2189.1073    
    252000   532.60997      3215.0228      2690.8819     -2192.2842    
    252400   624.47649      3411.4456     -1599.6296     -2187.9618    
    252800   599.98446      3458.8622     -3280.8273     -2188.2896    
    253200   537.30327      3376.3229     -13456.718     -2191.2609    
    253600   595.15277      3282.8338      3854.5934     -2189.0341    
    254000   557.07605      3284.6524      6470.2475     -2189.7283    
    254400   620.27215      3206.8051      13798.917     -2186.4009    
    254800   542.82977      3240.7274     -2443.4746     -2190.8745    
    255200   604.83011      3352.2778     -4658.3134     -2189.2711    
    255600   567.30073      3388.2246      11334.981     -2191.052     
    256000   586.70065      3357.5163      3671.4199     -2191.066     
    256400   594.66994      3368.8816     -3611.3631     -2191.5888    
    256800   614.67645      3349.0317     -6834.5443     -2187.7361    
    257200   580.46551      3271.3186     -2671.9572     -2190.65      
    257600   610.28896      3376.3108      2985.3337     -2187.5301    
    258000   563.36147      3432.5974      3933.8745     -2189.6424    
    258400   572.745        3438.895       6322.123      -2192.5673    
    258800   620.25396      3394.4347      9484.6176     -2190.4242    
    259200   593.33935      3399.4845      5531.6086     -2187.5181    
    259600   556.01816      3487.6949     -3007.8077     -2192.9005    
    260000   607.20896      3366.1108      4548.0413     -2187.3975    
    260400   586.79188      3363.6141     -1426.1164     -2189.92      
    260800   583.76433      3407.9425      1269.156      -2190.4552    
    261200   599.35872      3318.797       3754.1165     -2191.1891    
    261600   591.25773      3408.4556     -3452.8616     -2188.6886    
    262000   607.57516      3381.711      -3159.6499     -2190.4827    
    262400   575.53399      3241.2519     -1969.0795     -2190.5792    
    262800   525.16174      3266.268      -2391.4678     -2191.6826    
    263200   639.89777      3241.9017     -7163.4637     -2188.6628    
    263600   592.13943      3284.3648     -2560.0833     -2189.8975    
    264000   598.19299      3297.4191     -3286.9262     -2190.4774    
    264400   586.66573      3219.6517     -974.8724      -2191.6324    
    264800   595.38587      3210.6197      14150.906     -2190.3401    
    265200   606.1886       3266.1458      1833.8591     -2188.138     
    265600   610.61942      3266.8797     -1863.4203     -2190.2472    
    266000   580.09147      3271.9312     -2510.9        -2191.2568    
    266400   642.21609      3233.493       3724.5866     -2189.0652    
    266800   596.5843       3263.036      -1313.0672     -2192.9794    
    267200   579.53783      3319.3192      4481.2659     -2188.9559    
    267600   624.31755      3304.1083     -4489.7089     -2188.7712    
    268000   560.95432      3211.5684      2460.0347     -2191.0313    
    268400   597.5555       3275.3117      1422.2637     -2191.7477    
    268800   609.30344      3275.1272     -6125.6953     -2187.8883    
    269200   608.63179      3264.3172      2055.8851     -2189.9512    
    269600   609.84038      3227.9996     -2267.3155     -2189.3965    
    270000   538.2024       3232.5345      3593.1543     -2192.7785    
    270400   615.1178       3314.5593     -1970.4058     -2189.2116    
    270800   598.2771       3341.0822     -4523.9627     -2188.4741    
    271200   559.71478      3372.0215     -140.87675     -2190.1638    
    271600   530.75021      3422.8715     -608.0702      -2192.0618    
    272000   556.17276      3337.056       1221.1466     -2189.324     
    272400   567.18588      3250.2741     -12305.115     -2191.4469    
    272800   550.50209      3232.2072     -4082.4952     -2190.1457    
    273200   615.6203       3289.6577     -3792.9376     -2189.361     
    273600   619.3214       3336.8156      7814.969      -2187.1129    
    274000   558.29469      3388.4012      474.58181     -2189.7345    
    274400   586.11686      3273.8544     -2979.6507     -2191.7438    
    274800   602.93123      3230.1847      1410.9703     -2188.8699    
    275200   578.65154      3217.1467     -734.80904     -2191.0759    
    275600   605.56621      3262.6477     -6687.3389     -2190.4202    
    276000   630.07251      3228.9501      5243.8782     -2189.1109    
    276400   594.71955      3232.4179     -191.01191     -2189.774     
    276800   604.11941      3225.7335      3294.2247     -2188.7452    
    277200   588.57601      3256.0862      10811.459     -2190.8673    
    277600   562.65602      3289.8299      2605.0042     -2192.8669    
    278000   586.29352      3301.4928      6648.1836     -2190.3395    
    278400   625.11985      3237.9502     -4129.3352     -2189.8821    
    278800   604.49638      3245.5835     -8792.357      -2187.6306    
    279200   551.17624      3247.8501     -3399.4307     -2191.2805    
    279600   581.89421      3301.78       -5394.2855     -2189.9214    
    280000   605.90026      3255.1849      12341.068     -2188.9873    
    280400   607.52074      3198.9662      6787.6734     -2189.8258    
    280800   557.95498      3219.8365      8002.0589     -2191.709     
    281200   608.70031      3322.2205     -1669.9361     -2188.8477    
    281600   562.06394      3415.1304     -9157.27       -2189.9273    
    282000   596.94299      3374.4168     -6607.1247     -2191.0095    
    282400   584.12528      3353.6122     -5296.4211     -2189.2132    
    282800   654.58343      3226.2848      6363.3914     -2186.2114    
    283200   566.73048      3298.8437      317.72502     -2189.6096    
    283600   588.19581      3349.1377      7242.7635     -2188.8586    
    284000   542.91579      3364.0017      7833.0069     -2191.9656    
    284400   621.97144      3375.8191     -6587.3446     -2188.407     
    284800   638.28078      3317.7074     -1853.0968     -2188.9002    
    285200   586.75728      3320.9421     -9296.991      -2190.2724    
    285600   591.50071      3278.3378     -2037.4122     -2189.9673    
    286000   632.77942      3364.017       3188.9155     -2187.141     
    286400   581.63183      3380.7481     -1139.5146     -2190.0413    
    286800   582.22094      3216.822       5189.9163     -2189.4428    
    287200   642.0719       3203.3501      975.42054     -2187.6721    
    287600   582.52044      3270.3164      3931.9701     -2191.1699    
    288000   544.91851      3393.9045     -3899.9846     -2191.3531    
    288400   620.3137       3385.2006     -7089.9503     -2188.0685    
    288800   602.68811      3280.1963      10573.328     -2190.0647    
    289200   583.02967      3278.0224     -4552.1907     -2189.2055    
    289600   572.50199      3310.9458      8117.3804     -2189.6991    
    290000   563.31252      3339.9752      308.64042     -2191.9732    
    290400   623.637        3341.7959      9774.459      -2189.736     
    290800   585.90678      3349.3295      2313.4125     -2187.106     
    291200   548.55013      3267.783      -678.83017     -2190.4523    
    291600   577.68611      3358.8314     -3909.5795     -2191.3227    
    292000   597.6182       3321.5822      1837.224      -2189.6466    
    292400   555.34659      3346.9266     -7328.1532     -2190.7805    
    292800   542.21184      3365.8376     -7535.8881     -2190.856     
    293200   611.82753      3409.4459      3594.0872     -2188.418     
    293600   548.05011      3391.0645     -2416.0846     -2190.3109    
    294000   560.57031      3318.8998      6140.2809     -2192.0196    
    294400   615.75146      3314.048       5599.4023     -2189.8362    
    294800   590.46936      3358.7514     -5179.0353     -2188.2961    
    295200   558.5149       3387.667      -615.47339     -2190.5988    
    295600   576.41783      3456.0991      4949.8117     -2190.7596    
    296000   651.88879      3408.694       1148.0893     -2188.9594    
    296400   599.06702      3347.9281      46.00289      -2189.5035    
    296800   611.95531      3415.7014     -3720.6477     -2190.5964    
    297200   560.00831      3483.5204     -2123.9312     -2190.2157    
    297600   595.31419      3487.5176     -5317.6217     -2188.1817    
    298000   595.69633      3432.4378     -1494.2383     -2189.4673    
    298400   552.02509      3399.8142      2101.4343     -2192.9796    
    298800   573.5398       3383.7004     -15451.72      -2190.2787    
    299200   605.81797      3362.7015     -1460.2173     -2188.2467    
    299600   558.45569      3393.0279     -1235.5696     -2191.0989    
    300000   595.20615      3308.1403      923.02647     -2189.8709    
    300400   608.40491      3321.927      -1538.0107     -2189.7862    
    300800   536.51603      3311.8857      4997.9958     -2190.8875    
    301200   555.03524      3244.9682      6008.4182     -2190.9854    
    301600   611.72486      3250.1432     -6368.0526     -2187.3889    
    302000   560.73939      3259.5076     -1687.9068     -2190.4938    
    302400   549.3509       3187.3172      1380.4607     -2192.0913    
    302800   601.67635      3231.6921      4299.7999     -2190.2006    
    303200   584.70308      3269.0355      8713.7307     -2190.0801    
    303600   583.82333      3375.2658      9032.8869     -2190.7173    
    304000   582.15286      3444.229       783.67904     -2187.8469    
    304400   586.06026      3585.1672     -805.77985     -2188.6621    
    304800   593.48465      3509.7504     -6921.3007     -2190.4211    
    305200   608.07692      3527.5833     -7306.0258     -2189.7298    
    305600   607.17298      3573.9877     -9658.9504     -2187.0236    
    306000   629.15184      3574.9216     -9507.4978     -2189.3021    
    306400   599.8024       3521.234      -2391.6163     -2189.4033    
    306800   556.24949      3540.6392      613.18259     -2191.8408    
    307200   588.15279      3584.6952      2220.3219     -2188.1852    
    307600   631.94014      3476.8916      10817.9       -2187.6251    
    308000   584.61831      3478.6229     -6729.145      -2190.1108    
    308400   612.82025      3480.6344      3787.2387     -2186.7483    
    308800   591.36734      3525.6135     -1838.4347     -2188.8104    
    309200   590.51415      3470.2343      684.64293     -2189.6571    
    309600   604.83497      3483.3373     -1381.1223     -2188.1051    
    310000   608.21153      3480.229      -1084.5962     -2188.1044    
    310400   618.73087      3521.4897      665.90039     -2189.7661    
    310800   614.85853      3489.0239     -7216.4612     -2188.43      
    311200   604.70272      3482.4155     -194.62993     -2186.8092    
    311600   572.25736      3546.7714     -6417.6862     -2188.5867    
    312000   559.17615      3482.0732      5449.5432     -2190.4701    
    312400   636.02138      3444.0817      4686.528      -2187.0518    
    312800   626.58986      3522.3225      7401.5075     -2189.5845    
    313200   596.46622      3433.0485      8326.9402     -2188.0051    
    313600   594.87095      3454.248       6726.7999     -2188.218     
    314000   582.66702      3347.8277      1181.3646     -2190.3937    
    314400   594.5187       3360.7538      1376.8036     -2189.9408    
    314800   644.79129      3415.7006     -2126.8202     -2186.7658    
    315200   599.20732      3430.3364     -4515.0311     -2188.0343    
    315600   601.53298      3324.8422      5965.0164     -2188.2522    
    316000   591.85945      3234.6617     -4416.7884     -2189.7839    
    316400   603.83205      3216.7697     -7959.4895     -2190.4574    
    316800   577.96149      3257.5394      718.02389     -2188.2502    
    317200   594.81304      3284.4166      3195.7991     -2190.2407    
    317600   632.33417      3339.9737      16262.8       -2187.7741    
    318000   608.98074      3269.2657      4623.801      -2188.3082    
    318400   553.57635      3307.4145     -4314.4416     -2191.0319    
    318800   570.39171      3356.9743     -4225.4851     -2189.1162    
    319200   606.25177      3342.9532     -998.57892     -2190.6805    
    319600   562.35003      3283.9667     -4581.0442     -2191.3633    
    320000   605.50028      3342.8284     -9751.9369     -2189.4747    
    320400   596.66965      3342.5514      7278.3486     -2189.456     
    320800   607.31703      3336.9424     -4920.7315     -2187.0175    
    321200   622.532        3344.6032     -3957.6387     -2189.2865    
    321600   567.87868      3319.1955      3980.9218     -2192.9996    
    322000   538.73216      3339.0476     -4257.1549     -2190.5821    
    322400   636.39304      3321.4193     -277.97074     -2186.9798    
    322800   606.91937      3314.0375      271.73872     -2190.0145    
    323200   602.66469      3318.4527      6836.973      -2189.2211    
    323600   568.40499      3315.6843      6749.2329     -2192.0527    
    324000   610.05478      3301.5441     -1457.2087     -2188.8446    
    324400   614.15801      3243.2072      2108.1993     -2188.3485    
    324800   577.01977      3220.2729     -257.33523     -2192.2044    
    325200   611.91719      3252.2007     -11124.528     -2189.1833    
    325600   610.09747      3330.4923     -8441.7197     -2187.9677    
    326000   548.12847      3326.4762     -684.81597     -2191.8456    
    326400   600.34976      3387.0746     -12.967219     -2189.242     
    326800   589.94755      3358.9007      2326.6129     -2191.1403    
    327200   559.68228      3406.2297     -2206.4891     -2191.6817    
    327600   602.57104      3370.2904     -5482.9079     -2188.7986    
    328000   560.8394       3390.9119      7012.9085     -2189.7922    
    328400   646.52799      3436.1612     -11080.143     -2186.9099    
    328800   602.47178      3455.455      -3192.4634     -2188.8914    
    329200   572.24491      3489.0517     -2603.2069     -2190.7169    
    329600   668.58946      3474.9444     -2102.2419     -2185.8914    
    330000   549.32805      3351.4498     -6836.7156     -2190.4569    
    330400   554.13355      3320.2144     -764.43707     -2190.6883    
    330800   614.45593      3315.676       3157.3546     -2187.0695    
    331200   588.13047      3395.5933     -12.184194     -2190.1845    
    331600   569.02449      3397.1386      2749.9559     -2190.2371    
    332000   632.04914      3365.5974     -9569.0287     -2187.586     
    332400   586.29927      3335.2077      2918.5506     -2190.0588    
    332800   576.41544      3343.5673      13947.934     -2190.2129    
    333200   605.61754      3337.2495      5302.5323     -2187.7224    
    333600   562.47296      3282.063      -3358.1059     -2189.8922    
    334000   618.88354      3388.5428     -592.70518     -2189.0523    
    334400   635.32664      3393.4849      8939.1698     -2187.5106    
    334800   625.15942      3393.8038     -2013.0456     -2190.5967    
    335200   595.52625      3330.9934      2411.4445     -2189.2712    
    335600   535.6489       3254.8974      5789.7333     -2192.6264    
    336000   601.06601      3287.6344     -9032.9488     -2188.1116    
    336400   599.75908      3393.2594     -11767.849     -2190.5211    
    336800   571.58811      3371.2081      4645.3108     -2191.2782    
    337200   621.19931      3296.5308      12126.501     -2188.0646    
    337600   599.47874      3377.9623     -4366.071      -2189.9054    
    338000   561.37423      3445.4696      2789.8236     -2189.5008    
    338400   580.55239      3404.904       4753.7953     -2188.4541    
    338800   599.10991      3363.2172     -8767.4046     -2189.0263    
    339200   592.49147      3365.2853     -2993.0893     -2189.4012    
    339600   556.79497      3458.0559      594.82425     -2192.5699    
    340000   556.82331      3502.4975     -5078.5709     -2189.0984    
    340400   606.24569      3386.0236     -9429.1584     -2191.1246    
    340800   604.65965      3320.3458      1818.3636     -2187.3365    
    341200   597.76222      3288.204       3880.8645     -2189.5178    
    341600   555.34073      3241.1426     -1141.5986     -2190.6564    
    342000   594.55687      3208.5457      9945.3189     -2189.1673    
    342400   584.27415      3227.8258      5754.5262     -2192.0802    
    342800   624.02026      3267.1964     -3944.7396     -2189.4509    
    343200   594.67585      3290.7197     -4107.924      -2187.7416    
    343600   619.14465      3231.4005      7493.2975     -2189.7859    
    344000   542.58246      3342.596      -1177.7747     -2190.8268    
    344400   570.96236      3364.7095      1603.3727     -2188.488     
    344800   613.48351      3376.3339     -3795.4862     -2188.5518    
    345200   579.93514      3430.6273     -3807.6133     -2189.7705    
    345600   640.93428      3477.5039      5045.644      -2186.8092    
    346000   613.32367      3505.6826     -8253.8328     -2187.8392    
    346400   586.7385       3451.3485     -7891.4215     -2191.3755    
    346800   629.71695      3482.5573     -2896.1962     -2189.2168    
    347200   576.40711      3434.8168      15769.108     -2190.6338    
    347600   580.78518      3370.9954      1548.0722     -2190.5833    
    348000   576.43933      3378.4106     -10486.902     -2188.6809    
    348400   603.49959      3372.5582     -14524.866     -2187.8546    
    348800   588.11523      3385.4794     -9336.044      -2189.3657    
    349200   611.13767      3339.9329     -5463.2866     -2185.9311    
    349600   592.14947      3341.1512      4299.7276     -2189.6305    
    350000   644.57028      3443.939       856.05236     -2186.8106    
    350400   594.65313      3459.2708     -4870.5237     -2188.237     
    350800   548.26253      3414.1908     -2613.9001     -2191.3846    
    351200   582.9085       3441.6312     -9456.1268     -2188.7256    
    351600   569.29571      3459.1886      335.96495     -2189.3144    
    352000   607.51557      3464.6006      2684.4738     -2190.011     
    352400   560.30666      3429.5322      1494.2747     -2190.5083    
    352800   595.52868      3348.444      -6722.6775     -2188.5602    
    353200   558.53925      3298.7023     -7119.0429     -2191.5959    
    353600   622.92043      3289.4112      1401.5902     -2188.0764    
    354000   583.57743      3278.4695      44.86273      -2189.7192    
    354400   598.67766      3263.0117     -8072.4122     -2188.0728    
    354800   562.27013      3396.8185     -464.46362     -2190.5649    
    355200   550.83         3476.5351      3046.5806     -2192.5469    
    355600   588.04371      3360.6726     -1040.0217     -2189.3913    
    356000   620.96842      3335.2056     -3544.4927     -2188.2886    
    356400   565.41747      3333.2125     -6043.3427     -2192.4956    
    356800   580.9381       3354.9987      824.19348     -2188.9817    
    357200   614.13061      3334.5636      6420.6727     -2187.1959    
    357600   582.6965       3336.5354     -4418.9957     -2189.5689    
    358000   608.50978      3354.8665     -3814.0586     -2188.4706    
    358400   598.58779      3393.7336     -818.57571     -2188.9114    
    358800   607.47889      3401.2635      7666.4171     -2189.3693    
    359200   606.28728      3405.8684      2850.6255     -2188.5442    
    359600   614.60442      3375.7927     -2296.2916     -2187.6865    
    360000   590.26491      3347.7249      8582.8534     -2189.9011    
    360400   622.68584      3435.2042     -2679.1387     -2186.874     
    360800   583.78673      3388.0443      4557.4926     -2188.4017    
    361200   605.29551      3350.3331     -2167.9793     -2188.8003    
    361600   657.52302      3416.7094     -1579.5022     -2186.575     
    362000   609.5608       3389.0046      7269.7822     -2189.6139    
    362400   615.50412      3301.392       1819.3402     -2188.8989    
    362800   637.59533      3237.8711     -8678.1239     -2187.9386    
    363200   575.3006       3301.4167      2017.5707     -2190.232     
    363600   635.59721      3273.9056      13.79373      -2187.7774    
    364000   615.54543      3311.2902     -8704.338      -2188.6004    
    364400   657.0812       3343.4914      1883.539      -2189.0708    
    364800   583.35437      3403.6556      14543.236     -2191.2673    
    365200   612.52048      3436.1618     -5340.591      -2188.4113    
    365600   544.00505      3340.356       3941.8538     -2190.9543    
    366000   636.43552      3415.1929      7222.1797     -2187.3023    
    366400   550.28204      3368.6401      993.94456     -2191.046     
    366800   604.68112      3378.1542     -5925.7392     -2189.3591    
    367200   661.39966      3339.1593     -14796.593     -2185.5336    
    367600   575.85662      3326.7719     -8186.3635     -2190.4699    
    368000   581.29755      3365.1164      6097.8436     -2190         
    368400   600.8162       3421.1738     -2990.2747     -2189.5155    
    368800   587.74835      3504.6015     -3617.0933     -2188.195     
    369200   549.83531      3468.6895     -3865.755      -2191.7857    
    369600   588.18117      3427.3805      4492.9851     -2189.1986    
    370000   644.7313       3378.1818     -793.35171     -2188.5966    
    370400   607.60367      3357.3362      140.18096     -2187.8998    
    370800   602.09982      3269.2343      2689.6984     -2189.6847    
    371200   609.7333       3301.3598      8748.3784     -2189.4848    
    371600   647.03429      3362.7743     -1581.7796     -2187.9115    
    372000   566.69248      3430.428      -9920.6698     -2190.609     
    372400   604.60257      3452.6342      1748.2613     -2187.8927    
    372800   616.26937      3337.4069      318.72245     -2189.0757    
    373200   596.54718      3430.19       -4056.3277     -2188.3344    
    373600   582.02838      3446.8342     -7912.673      -2190.0588    
    374000   580.20597      3354.5007      5413.3907     -2188.9372    
    374400   595.75513      3343.0681      4034.1529     -2189.2278    
    374800   566.73936      3401.6909     -11940.94      -2189.5203    
    375200   538.8948       3384.6125     -7392.4105     -2190.6949    
    375600   637.50096      3357.8625      888.43871     -2187.1796    
    376000   594.8508       3387.7898     -3481.8445     -2188.9747    
    376400   557.3435       3326.7639      10043.088     -2190.556     
    376800   613.80192      3379.2742      17274.435     -2186.9774    
    377200   578.63405      3494.068      -5353.3007     -2189.2232    
    377600   656.76148      3463.6886     -4074.1244     -2186.1709    
    378000   583.74617      3397.062       8662.5371     -2189.7649    
    378400   576.91408      3353.8052     -5559.1813     -2189.7834    
    378800   540.12247      3257.1168     -1348.391      -2191.7916    
    379200   594.61927      3378.7455     -2664.024      -2188.7199    
    379600   567.64151      3345.2007      11193.34      -2190.4658    
    380000   652.55237      3322.6805     -3679.8039     -2187.4717    
    380400   522.53912      3422.6378     -2876.8796     -2191.8363    
    380800   579.4152       3449.9355      2804.5517     -2189.0133    
    381200   591.37679      3572.6799     -510.748       -2186.1579    
    381600   590.03369      3532.8962     -7243.3605     -2188.8321    
    382000   642.695        3434.7955     -1228.4296     -2187.9207    
    382400   618.98715      3381.719      -2139.2038     -2189.035     
    382800   592.93105      3361.6549     -2351.8273     -2189.3344    
    383200   525.30301      3383.3106      1064.7568     -2192.5688    
    383600   587.96427      3401.8974     -4303.0143     -2188.5149    
    384000   599.2536       3366.5977     -4658.6302     -2189.1608    
    384400   591.93164      3405.6166     -12951.352     -2191.633     
    384800   600.19847      3394.8979     -3064.7034     -2188.6306    
    385200   566.38762      3366.3874      7231.5803     -2190.3667    
    385600   553.5383       3439.4129     -1708.7259     -2190.935     
    386000   648.43717      3425.931      -646.70986     -2186.7295    
    386400   613.07758      3413.4936      185.15562     -2188.3182    
    386800   594.8369       3361.8219      2007.238      -2190.4905    
    387200   568.79178      3396.1176     -1615.5817     -2188.7657    
    387600   617.57816      3421.9425      4984.3873     -2185.9789    
    388000   619.66846      3405.1229     -6606.3545     -2187.6186    
    388400   636.10337      3484.5899     -9222.3583     -2189.0519    
    388800   573.4442       3528.4844      1060.0662     -2190.4418    
    389200   584.86179      3494.9607     -4271.3281     -2189.1016    
    389600   588.88791      3436.5751     -4907.2028     -2190.5588    
    390000   643.93167      3297.7573     -4072.9634     -2188.2707    
    390400   569.39418      3218.6677     -1279.0466     -2190.8386    
    390800   561.95791      3296.6677      739.32934     -2191.8229    
    391200   568.19728      3336.3007      4405.4808     -2188.9459    
    391600   598.86016      3387.1102     -2315.3607     -2189.3676    
    392000   549.12084      3442.8413      2169.5916     -2191.072     
    392400   567.56685      3453.5801     -4786.0263     -2189.3925    
    392800   577.62849      3442.4663     -6161.2069     -2190.5543    
    393200   595.46423      3410.1189      1196.2671     -2191.1624    
    393600   550.89241      3287.8396      10655.712     -2189.6956    
    394000   584.53899      3282.2269      9218.6236     -2190.6939    
    394400   622.78792      3363.6006      4458.3617     -2187.1231    
    394800   601.78916      3431.8748     -3835.7673     -2190.3963    
    395200   546.98273      3374.1221     -18479.465     -2189.6677    
    395600   570.25397      3403.4743     -4021.9165     -2188.926     
    396000   588.89614      3320.8447     -7029.9093     -2188.4287    
    396400   582.69949      3342.7149     -8527.8789     -2189.095     
    396800   546.92444      3312.037       1714.9886     -2190.4445    
    397200   588.28144      3394.8705      4369.3234     -2188.7996    
    397600   580.93339      3378.1956      608.82594     -2189.5233    
    398000   617.27402      3432.3709     -2396.3127     -2187.4536    
    398400   559.12031      3370.0893     -1024.4395     -2191.2736    
    398800   577.74823      3334.4876     -6652.299      -2190.8368    
    399200   632.12122      3330.4301      1313.9978     -2187.7853    
    399600   555.23574      3388.3493     -6093.4244     -2190.7536    
    400000   632.51049      3490.9004     -10745.168     -2187.0983    
Loop time of 87636.2 on 1 procs for 400000 steps with 308 atoms

Performance: 0.099 ns/day, 243.434 hours/ns, 4.564 timesteps/s, 1.406 katom-step/s
179.0% CPU use with 1 MPI tasks x no OpenMP threads

MPI task timing breakdown:
Section |  min time  |  avg time  |  max time  |%varavg| %total
---------------------------------------------------------------
Pair    | 87584      | 87584      | 87584      |   0.0 | 99.94
Neigh   | 25.054     | 25.054     | 25.054     |   0.0 |  0.03
Comm    | 11.062     | 11.062     | 11.062     |   0.0 |  0.01
Output  | 8.047      | 8.047      | 8.047      |   0.0 |  0.01
Modify  | 5.2728     | 5.2728     | 5.2728     |   0.0 |  0.01
Other   |            | 2.287      |            |       |  0.00

Nlocal:            308 ave         308 max         308 min
Histogram: 1 0 0 0 0 0 0 0 0 0
Nghost:           7444 ave        7444 max        7444 min
Histogram: 1 0 0 0 0 0 0 0 0 0
Neighs:         156124 ave      156124 max      156124 min
Histogram: 1 0 0 0 0 0 0 0 0 0
FullNghs:        58114 ave       58114 max       58114 min
Histogram: 1 0 0 0 0 0 0 0 0 0

Total # of neighbors = 156124
Ave neighs/atom = 506.8961
Neighbor list builds = 5218
Dangerous builds = 0

#-------------------- End ----------------------------------------------------------------
Total wall time: 29:12:05
