LAMMPS (2 Aug 2023)
package omp 8
WARNING: OpenMP support not enabled during compilation; using 1 thread only. (../fix_omp.cpp:116)
#-------------------- Initialization -----------------------------------------------------
clear
package omp 8
WARNING: OpenMP support not enabled during compilation; using 1 thread only. (../fix_omp.cpp:116)
echo            both    # echoes each input script command to both log file and screen
#-----------------------------------------------------------------------------------------
units           metal   # determines units of all quantities used in the input file
atom_style      full
boundary        p p p   # periodic boundary condition
#-----------------------------------------------------------------------------------------
variable Tini equal 273+25   # [K] (Initial temperature)
variable Tfin equal 273+25   # [K] (Annealing temperature)

variable Pfin index   13.0   # [bar] (Note 1.0 bar = 0.1 MPa)

variable Nout equal    100   # every 100 time steps to the specified file

variable   natom index 5
variable   nmove index 5
variable   mu    index -5.46 # Fermi Energy (eV) from MOPAC2016 PM7
variable   disp  index 0.01

variable   tfac  equal 5.0/3.0 # (3 trans + 2 rot)/(3 trans) for molecular (2 atoms)
# trans = 3, rot = 2 (line), rot = 3 (non-line), vib = 3n-5 (line), vib = 3n-6 (non-line)
# total = 3n = 3+2+3n-5 = 3+3+3n-6
# vib = about 0.0 at R.T. for molecular (2 atoms)

#-------------------- Atom & Lattice description ----------------------------------------
read_data       data.lammps
Reading data file ...
  orthogonal box = (0 0 0) to (24.07 24.07 24.07)
  1 by 1 by 1 MPI processor grid
  reading atoms ...
  360 atoms
Finding 1-2 1-3 1-4 neighbors ...
  special bond factors lj:    0        0        0       
  special bond factors coul:  0        0        0       
     0 = max # of 1-2 neighbors
     0 = max # of 1-3 neighbors
     0 = max # of 1-4 neighbors
     1 = max # of special neighbors
  special bonds CPU = 0.000 seconds
  read_data CPU = 0.006 seconds

replicate 1 1 1
Replication is creating a 1x1x1 = 1 times larger system...
  orthogonal box = (0 0 0) to (24.07 24.07 24.07)
  1 by 1 by 1 MPI processor grid
  360 atoms
Finding 1-2 1-3 1-4 neighbors ...
  special bond factors lj:    0        0        0       
  special bond factors coul:  0        0        0       
     0 = max # of 1-2 neighbors
     0 = max # of 1-3 neighbors
     0 = max # of 1-4 neighbors
     1 = max # of special neighbors
  special bonds CPU = 0.000 seconds
  replicate CPU = 0.001 seconds

molecule        my_one_gas ./molecular_files/H2.txt
Read molecule template my_one_gas:
  1 molecules
  0 fragments
  2 atoms with max type 3
  0 bonds with max type 0
  0 angles with max type 0
  0 dihedrals with max type 0
  0 impropers with max type 0
group           gas type 3
0 atoms in group gas
variable        atoms_of_gas equal 2 # The number of atoms per gas molecule

variable elem string "C H H" # specifies the potential file used

# set overlap_cutoff (Note: H-H: 1.06 A) = x 85% => 0.90
variable overlap_cutoff_value equal 0.90

#-------------------- Force field --------------------------------------------------------
pair_style hybrid/overlay m3gnet /mnt/d/lammps/potentials/M3GNET momb 12.0 0.75 20.0

#pair_coeff      * *  m3gnet MP-2021.2.8-EFS ${elem} # M3GNet <https://github.com/materialsvirtuallab/m3gnet> will be called
pair_coeff      * *  m3gnet M3GNet-MP-2021.2.8-PES ${elem} # MatGL <https://github.com/materialsvirtuallab/matgl> will be called
pair_coeff      * *  m3gnet M3GNet-MP-2021.2.8-PES C H H 

# atom type 1, C
variable C6_1 equal 1.75  # Jnm6mol-1
variable R0_1 equal 1.452 # Angstrom

# atom type 2, H
variable C6_2 equal 0.14  # Jnm6mol-1
variable R0_2 equal 1.001 # Angstrom

# atom type 3, H
variable C6_3 equal 0.14  # Jnm6mol-1
variable R0_3 equal 1.001 # Angstrom

# convert [Jnm6mol-1] to [eVA6], (sqrt() or ()^0.5)
#-----------------------------------------------------------------------------------------
pair_coeff 1 1 momb 0.0 1.0 1.0 $(sqrt(v_C6_1 * v_C6_1)*10.364) $(v_R0_1 + v_R0_1) # C-C
pair_coeff 1 1 momb 0.0 1.0 1.0 18.137000000000000455 $(v_R0_1 + v_R0_1) 
pair_coeff 1 1 momb 0.0 1.0 1.0 18.137000000000000455 2.9039999999999999147 
pair_coeff 1 2 momb 0.0 1.0 1.0 $(sqrt(v_C6_1 * v_C6_2)*10.364) $(v_R0_1 + v_R0_2) # C-H
pair_coeff 1 2 momb 0.0 1.0 1.0 5.1299182761521660012 $(v_R0_1 + v_R0_2) 
pair_coeff 1 2 momb 0.0 1.0 1.0 5.1299182761521660012 2.4529999999999998472 
pair_coeff 1 3 momb 0.0 1.0 1.0 $(sqrt(v_C6_1 * v_C6_3)*10.364) $(v_R0_1 + v_R0_3) # C-Hg
pair_coeff 1 3 momb 0.0 1.0 1.0 5.1299182761521660012 $(v_R0_1 + v_R0_3) 
pair_coeff 1 3 momb 0.0 1.0 1.0 5.1299182761521660012 2.4529999999999998472 
#-----------------------------------------------------------------------------------------
pair_coeff 2 2 momb 0.0 1.0 1.0 $(sqrt(v_C6_2 * v_C6_2)*10.364) $(v_R0_2 + v_R0_2) # H-H
pair_coeff 2 2 momb 0.0 1.0 1.0 1.4509600000000002495 $(v_R0_2 + v_R0_2) 
pair_coeff 2 2 momb 0.0 1.0 1.0 1.4509600000000002495 2.0019999999999997797 
pair_coeff 2 3 momb 0.0 1.0 1.0 $(sqrt(v_C6_2 * v_C6_3)*10.364) $(v_R0_2 + v_R0_3) # H-Hg
pair_coeff 2 3 momb 0.0 1.0 1.0 1.4509600000000002495 $(v_R0_2 + v_R0_3) 
pair_coeff 2 3 momb 0.0 1.0 1.0 1.4509600000000002495 2.0019999999999997797 
#-----------------------------------------------------------------------------------------
pair_coeff 3 3 momb 0.0 1.0 1.0 $(sqrt(v_C6_3 * v_C6_3)*10.364) $(v_R0_3 + v_R0_3) # Hg-Hg
pair_coeff 3 3 momb 0.0 1.0 1.0 1.4509600000000002495 $(v_R0_3 + v_R0_3) 
pair_coeff 3 3 momb 0.0 1.0 1.0 1.4509600000000002495 2.0019999999999997797 
#-----------------------------------------------------------------------------------------

#-------------------- Energy Minimization ------------------------------------------------
# 0 [K], structure optimization
#fix             emin all box/relax x 0.0 y 0.0 z 0.0
#fix             emin all box/relax aniso 0.0
fix             emin all box/relax iso ${Pfin}
fix             emin all box/relax iso 13.0
min_style       cg
min_modify      dmax 0.2
min_modify      line quadratic
minimize        1.0e-4 1.0e-6 100 1000

CITE-CITE-CITE-CITE-CITE-CITE-CITE-CITE-CITE-CITE-CITE-CITE-CITE

Your simulation uses code contributions which should be cited:

- Pair style momb: doi:10.1021/jp412098n

@Article{pair_momb_2015,
title = {A Force Field for Describing the Polyvinylpyrrolidone-Mediated
    Solution-Phase Synthesis of Shape-Selective {Ag} Nanoparticles},
volume = {118},
number = {6},
url = {https://doi.org/10.1021/jp412098n},
doi = {10.1021/jp412098n},
journal = {J.~Phys.\ Chem.~C},
author = {Zhou, Ya and Wissam A. Saidi and Kristen A. Fichthorn},
year = {2014},
pages = {3366--3374}
}

CITE-CITE-CITE-CITE-CITE-CITE-CITE-CITE-CITE-CITE-CITE-CITE-CITE

No /omp style for force computation currently active
Neighbor list info ...
  update: every = 1 steps, delay = 0 steps, check = yes
  max neighbors/atom: 2000, page size: 100000
  master list distance cutoff = 14
  ghost atom cutoff = 14
  binsize = 7, bins = 4 4 4
  2 neighbor lists, perpetual/occasional/extra = 2 0 0
  (1) pair m3gnet, perpetual
      attributes: full, newton on, omp, cut 7
      pair build: full/bin/omp
      stencil: full/bin/3d
      bin: standard
  (2) pair momb, perpetual
      attributes: half, newton on, omp
      pair build: half/bin/newton/omp
      stencil: half/bin/3d
      bin: standard
WARNING: Energy due to 1 extra global DOFs will be included in minimizer energies
 (../min.cpp:225)
Per MPI rank memory allocation (min/avg/max) = 8 | 8 | 8 Mbytes
   Step          Temp          E_pair         E_mol          TotEng         Press          Volume    
         0   0             -2857.5322      0             -2857.5322      6597.4894      13945.313    
         1   0             -2857.5501      0             -2857.5501      6450.7836      13949.497    
Loop time of 0.143936 on 1 procs for 1 steps with 360 atoms

990.1% CPU use with 1 MPI tasks x no OpenMP threads

Minimization stats:
  Stopping criterion = energy tolerance
  Energy initial, next-to-last, final = 
     -2857.53215445711  -2857.53215445711  -2857.55009020958
  Force two-norm initial, final = 174.13737 170.38186
  Force max component initial, final = 171.9338 168.13665
  Final line search alpha, max atom move = 5.8161919e-07 9.7791504e-05
  Iterations, force evaluations = 1 1

MPI task timing breakdown:
Section |  min time  |  avg time  |  max time  |%varavg| %total
---------------------------------------------------------------
Pair    | 0.14382    | 0.14382    | 0.14382    |   0.0 | 99.92
Bond    | 1.76e-07   | 1.76e-07   | 1.76e-07   |   0.0 |  0.00
Neigh   | 0          | 0          | 0          |   0.0 |  0.00
Comm    | 1.8675e-05 | 1.8675e-05 | 1.8675e-05 |   0.0 |  0.01
Output  | 0          | 0          | 0          |   0.0 |  0.00
Modify  | 5.322e-06  | 5.322e-06  | 5.322e-06  |   0.0 |  0.00
Other   |            | 9.337e-05  |            |       |  0.06

Nlocal:            360 ave         360 max         360 min
Histogram: 1 0 0 0 0 0 0 0 0 0
Nghost:           3144 ave        3144 max        3144 min
Histogram: 1 0 0 0 0 0 0 0 0 0
Neighs:          48732 ave       48732 max       48732 min
Histogram: 1 0 0 0 0 0 0 0 0 0
FullNghs:        17232 ave       17232 max       17232 min
Histogram: 1 0 0 0 0 0 0 0 0 0

Total # of neighbors = 48732
Ave neighs/atom = 135.36667
Ave special neighs/atom = 0
Neighbor list builds = 0
Dangerous builds = 0
unfix           emin

#-------------------- Settings -----------------------------------------------------------
reset_timestep 0

timestep 0.0005  # 0.5 [fs] (Recommend 0.1-1.0 [fs]), sets the timestep for subsequent simulations

variable        ngas equal count(gas)/${atoms_of_gas} # The number of molecules (e.g., H2, N2, CO2, H2O, He, Ar, Kr, etc)
variable        ngas equal count(gas)/2 

variable        wtp  equal mass(gas)/mass(all)*100 # Mass Percent Concentration, wt.% [dimensionless] (Absolute, Not excess)

#variable        molc equal (v_ngas/6.022e23)/(vol*1e-30) # molar concentration [mol/m^3] (Absolute, Not excess)
variable        molL equal (v_ngas/6.022e23)/(vol*1e-27) # molar concentration [mol/L] = [mol/dm^3] (Absolute, Not excess)

variable        mc   equal (mass(gas)/6.022e23/1000)/(vol*1e-30) # Mass Concentration [kg/m^3] (Absolute, Not excess)

thermo ${Nout}   # computes and prints thermodynamic
thermo 100   
thermo_style custom step temp vol press etotal v_ngas v_wtp v_molL v_mc # specifies content of thermodynamic data to be printed in screen

velocity all create ${Tini} 12345 mom yes rot no # sets the velocity of a group of atoms
velocity all create 298 12345 mom yes rot no 

#---------- output file settings --------------------------------------
dump            d1 all cfg ${Nout} cfg/run.*.cfg mass type xs ys zs id type vx vy vz fx fy fz
dump            d1 all cfg 100 cfg/run.*.cfg mass type xs ys zs id type vx vy vz fx fy fz
dump_modify     d1 element ${elem}
dump_modify     d1 element C H H
#dump_modify     d1 sort id
#----------------------------------------------------------------------

#-------------------- Run the simulation -------------------------------------------------
compute mdtemp all temp
compute_modify mdtemp dynamic/dof yes

## Equilibrium system, calculation settings
#fix f1 all nvt temp ${Tini} ${Tfin} $(20*dt)
fix f1 all npt temp ${Tini} ${Tfin} $(20*dt) iso 0.0 ${Pfin} $(200*dt)
fix f1 all npt temp 298 ${Tfin} $(20*dt) iso 0.0 ${Pfin} $(200*dt)
fix f1 all npt temp 298 298 $(20*dt) iso 0.0 ${Pfin} $(200*dt)
fix f1 all npt temp 298 298 0.010000000000000000208 iso 0.0 ${Pfin} $(200*dt)
fix f1 all npt temp 298 298 0.010000000000000000208 iso 0.0 13.0 $(200*dt)
fix f1 all npt temp 298 298 0.010000000000000000208 iso 0.0 13.0 0.10000000000000000555
fix_modify f1 temp mdtemp

# non-equilibrium system, calculation settings
#fix f1 all nve
#fix f2 all langevin ${Tini} ${Tfin} $(20*dt) 12345
#fix_modify f2 temp mdtemp

# GCMC
fix f3 gas gcmc ${Nout} ${natom} ${nmove} 0 12345 ${Tfin} ${mu} ${disp} mol my_one_gas pressure ${Pfin} tfac_insert ${tfac} full_energy overlap_cutoff ${overlap_cutoff_value}
fix f3 gas gcmc 100 ${natom} ${nmove} 0 12345 ${Tfin} ${mu} ${disp} mol my_one_gas pressure ${Pfin} tfac_insert ${tfac} full_energy overlap_cutoff ${overlap_cutoff_value}
fix f3 gas gcmc 100 5 ${nmove} 0 12345 ${Tfin} ${mu} ${disp} mol my_one_gas pressure ${Pfin} tfac_insert ${tfac} full_energy overlap_cutoff ${overlap_cutoff_value}
fix f3 gas gcmc 100 5 5 0 12345 ${Tfin} ${mu} ${disp} mol my_one_gas pressure ${Pfin} tfac_insert ${tfac} full_energy overlap_cutoff ${overlap_cutoff_value}
fix f3 gas gcmc 100 5 5 0 12345 298 ${mu} ${disp} mol my_one_gas pressure ${Pfin} tfac_insert ${tfac} full_energy overlap_cutoff ${overlap_cutoff_value}
fix f3 gas gcmc 100 5 5 0 12345 298 -5.46 ${disp} mol my_one_gas pressure ${Pfin} tfac_insert ${tfac} full_energy overlap_cutoff ${overlap_cutoff_value}
fix f3 gas gcmc 100 5 5 0 12345 298 -5.46 0.01 mol my_one_gas pressure ${Pfin} tfac_insert ${tfac} full_energy overlap_cutoff ${overlap_cutoff_value}
fix f3 gas gcmc 100 5 5 0 12345 298 -5.46 0.01 mol my_one_gas pressure 13.0 tfac_insert ${tfac} full_energy overlap_cutoff ${overlap_cutoff_value}
fix f3 gas gcmc 100 5 5 0 12345 298 -5.46 0.01 mol my_one_gas pressure 13.0 tfac_insert 1.66666666666667 full_energy overlap_cutoff ${overlap_cutoff_value}
fix f3 gas gcmc 100 5 5 0 12345 298 -5.46 0.01 mol my_one_gas pressure 13.0 tfac_insert 1.66666666666667 full_energy overlap_cutoff 0.9

run             20000 # 10 ps
No /omp style for force computation currently active
0 atoms in group FixGCMC:gcmc_exclusion_group:f3
0 atoms in group FixGCMC:rotation_gas_atoms:f3
Per MPI rank memory allocation (min/avg/max) = 6.875 | 6.875 | 6.875 Mbytes
   Step          Temp          Volume         Press          TotEng         v_ngas         v_wtp          v_molL          v_mc     
         0   298            13949.497      7509.6372     -2843.7216      0              0              0              0            
       100   354.9444       14116.991     -2692.5873     -2837.7104      0              0              0              0            
       200   286.64863      14027.352     -368.78126     -2862.2537      4              0.22780127     0.47352571     0.954571     
       300   288.37497      13388.033      382.82436     -2858.8548      3              0.17094831     0.37210348     0.75011596   
       400   273.34012      13033.871      124.18236     -2866.2153      4              0.22780127     0.50961924     1.0273312    
       500   332.48464      12875.73       1009.1423     -2869.855       5              0.28458952     0.64484804     1.2999363    
       600   281.91757      12451.051      1375.2772     -2878.6755      6              0.34131315     0.80021095     1.6131292    
       700   301.95817      12664.972     -1387.1874     -2877.3577      6              0.34131315     0.78669476     1.5858822    
       800   324.43117      12727.897     -952.3838      -2869.3034      5              0.28458952     0.6523379      1.3150349    
       900   312.96907      12487.604     -1420.017      -2868.0652      5              0.28458952     0.6648905      1.3403395    
      1000   310.55141      12477.442     -149.97475     -2870.2311      5              0.28458952     0.66543201     1.3414311    
      1100   310.70587      12324.186      1087.9939     -2878.6911      6              0.34131315     0.8084483      1.6297348    
      1200   291.41317      12127.026     -841.59932     -2871.5325      5              0.28458952     0.68465998     1.3801924    
      1300   320.65678      12087.801      717.96483     -2883.8708      7              0.39797229     0.96163436     1.9385395    
      1400   310.63776      12099.629     -962.20336     -2876.9604      6              0.34131315     0.82345229     1.659981     
      1500   326.3202       12144.598     -128.64229     -2883.403       7              0.39797229     0.95713708     1.9294735    
      1600   296.17361      12334.635      1442.7845     -2898.4137      9              0.51109751     1.2116451      2.4425312    
      1700   306.00419      12615.539     -1547.257      -2903.1321      10             0.56756381     1.3162957      2.6534941    
      1800   307.31389      12522.29       904.88963     -2909.7895      11             0.62396605     1.4587074      2.9405791    
      1900   349.32204      12505.941      355.02794     -2914.9942      12             0.68030434     1.5933974      3.212098     
      2000   294.74011      12454.106     -1650.6181     -2915.3223      12             0.68030434     1.6000293      3.225467     
      2100   300.83589      12305.042      863.44914     -2911.2225      11             0.62396605     1.4844611      2.9924954    
      2200   338.50839      12252.25      -1112.2001     -2901.7882      10             0.56756381     1.3553249      2.7321723    
      2300   322.14841      12045.009      333.02582     -2901.3766      10             0.56756381     1.3786439      2.7791808    
      2400   301.07007      11951.959      1618.7033     -2904.2292      10             0.56756381     1.3893772      2.8008176    
      2500   313.99212      11791.028     -2510.9744     -2896.988       9              0.51109751     1.2675062      2.5551403    
      2600   301.57804      11655.363     -418.38167     -2891.4956      8              0.45456704     1.1397863      2.2976724    
      2700   310.94673      11466.441     -845.73709     -2891.1416      8              0.45456704     1.1585655      2.335529     
      2800   303.22853      11346.542     -191.55134     -2891.3531      8              0.45456704     1.1708081      2.3602086    
      2900   307.51469      11333.543      2198.93       -2886.0552      7              0.39797229     1.0256321      2.0675512    
      3000   277.90051      11176.344      1406.3099     -2884.5595      7              0.39797229     1.0400579      2.0966319    
      3100   311.84004      11340.677     -332.75261     -2878.3128      6              0.34131315     0.87856022     1.771072     
      3200   286.73077      11284.397     -1497.7214     -2879.7232      6              0.34131315     0.88294196     1.779905     
      3300   288.33104      11237.968     -1024.799      -2887.513       7              0.39797229     1.0343547      2.0851349    
      3400   303.68219      11172.133      773.74478     -2886.6523      7              0.39797229     1.0404499      2.0974222    
      3500   323.88907      11001.854      1545.3174     -2892.1398      8              0.45456704     1.2074894      2.4341538    
      3600   297.81317      10836.036     -17.12991      -2892.3732      8              0.45456704     1.225967       2.4714024    
      3700   320.65893      10431.598      733.00534     -2883.2275      7              0.39797229     1.1143111      2.2463175    
      3800   328.94619      10276.154     -1417.5197     -2889.7656      8              0.45456704     1.2927622      2.6060534    
      3900   310.05083      9857.5452     -316.27039     -2905.556       10             0.56756381     1.6845755      3.395902     
      4000   319.52468      9705.776       767.5595      -2895.6679      9              0.51109751     1.5398255      3.1041033    
      4100   330.0065       9747.0359      439.06922     -2889.3445      8              0.45456704     1.3629398      2.7475231    
      4200   307.31013      9845.8571      800.25216     -2883.8839      7              0.39797229     1.1806027      2.3799533    
      4300   299.30408      9915.8708     -433.94826     -2877.3855      6              0.34131315     1.0048         2.0255563    
      4400   328.6099       10004.611      995.59594     -2883.5326      7              0.39797229     1.1618688      2.342188     
      4500   308.10705      9880.3775      58.908763     -2884.7436      7              0.39797229     1.1764778      2.3716381    
      4600   302.80899      9921.6668     -2993.6876     -2884.573       7              0.39797229     1.1715819      2.3617685    
      4700   310.30305      9714.1119      539.2616      -2877.9047      6              0.34131315     1.0256694      2.0676264    
      4800   315.5613       9576.1919      3314.4644     -2890.4289      8              0.45456704     1.3872553      2.7965402    
      4900   291.59464      9684.5493      2431.4871     -2899.923       9              0.51109751     1.5432005      3.1109069    
      5000   321.36066      9893.3933     -1934.4847     -2890.6807      8              0.45456704     1.3427772      2.7068777    
      5100   307.98303      9944.1838     -3213.5007     -2884.0967      7              0.39797229     1.168929       2.3564207    
      5200   278.67372      10027.848     -777.72434     -2879.1208      6              0.34131315     0.99357979     2.0029376    
      5300   283.17051      10001.719      3329.7345     -2878.5538      6              0.34131315     0.9961755      2.0081703    
      5400   315.6543       10076.993      4.5201706     -2903.9376      10             0.56756381     1.6478903      3.3219491    
      5500   273.99828      10166.321      123.64902     -2904.6414      10             0.56756381     1.6334109      3.2927604    
      5600   318.41378      10269.018     -266.58442     -2904.2087      10             0.56756381     1.6170757      3.2598305    
      5700   325.65347      10093.405     -250.86897     -2896.7039      9              0.51109751     1.4806898      2.9848929    
      5800   306.38032      10128.393      2188.5435     -2891.0184      8              0.45456704     1.311622       2.6440725    
      5900   293.48716      10166.615     -1942.6194     -2884.8566      7              0.39797229     1.1433545      2.3048654    
      6000   304.70593      10008.886     -443.63008     -2891.7318      8              0.45456704     1.3272829      2.675643     
      6100   295.69183      10000.527      1175.5877     -2885.4233      7              0.39797229     1.1623433      2.3431446    
      6200   321.828        9849.5525      635.53379     -2877.8275      6              0.34131315     1.0115655      2.0391946    
      6300   327.44873      9726.1878      2085.2048     -2883.6472      7              0.39797229     1.1951286      2.4092358    
      6400   293.22058      9779.5147     -3106.1881     -2884.9521      7              0.39797229     1.1886117      2.3960985    
      6500   310.78287      9689.5944     -823.21976     -2885.1672      7              0.39797229     1.1996421      2.4183345    
      6600   291.07503      9630.5633      3407.7707     -2906.9174      10             0.56756381     1.7242791      3.4759397    
      6700   338.68365      9711.666       640.24202     -2923.3225      13             0.73657879     2.2228434      4.4809855    
      6800   345.72653      9756.8874      1276.9361     -2942.871       16             0.90502016     2.7231273      5.4894978    
WARNING: Energy of old configuration in fix gcmc is > MAXENERGYTEST. (../fix_gcmc.cpp:776)
      6900   303.4584       9829.8528     -650.14162     -2912.5937      11             0.62396605     1.8582533      3.7460157    
      7000   293.49634      9823.774      -1213.6869     -2912.6327      11             0.62396605     1.8594032      3.7483337    
WARNING: Energy of old configuration in fix gcmc is > MAXENERGYTEST. (../fix_gcmc.cpp:776)
      7100   304.36355      9731.6839      1527.4192     -2896.3724      9              0.51109751     1.5357261      3.0958395    
      7200   306.11389      9701.4955      768.34555     -2898.1266      9              0.51109751     1.5405049      3.1054729    
      7300   301.92559      9739.5197      299.80781     -2898.9341      9              0.51109751     1.5344906      3.0933488    
      7400   309.04679      9838.1826     -1257.1752     -2903.393       10             0.56756381     1.6878909      3.4025855    
      7500   328.60246      9893.9751     -2506.0663     -2907.8442      11             0.62396605     1.8462101      3.721738     
      7600   319.20823      10021.648      1526.5145     -2902.647       10             0.56756381     1.6569909      3.3402948    
      7700   314.58478      9956.266       1445.9549     -2894.8136      9              0.51109751     1.5010849      3.0260071    
      7800   302.79759      9952.3409     -204.89625     -2889.6131      8              0.45456704     1.334824       2.6908449    
      7900   294.52171      9824.248      -293.02869     -2883.7804      7              0.39797229     1.1831995      2.3851882    
      8000   296.01841      9649.2908     -751.23836     -2883.5986      7              0.39797229     1.2046528      2.4284355    
      8100   300.53764      9645.4041      216.72533     -2910.6914      11             0.62396605     1.8937886      3.8176506    
      8200   311.56661      9756.3003     -663.07758     -2910.3996      11             0.62396605     1.8722627      3.7742568    
      8300   303.02028      9869.6334      1644.9245     -2915.3287      12             0.68030434     2.0190147      4.0700913    
      8400   338.7453       10117.104      1642.0118     -2920.1484      13             0.73657879     2.1337639      4.3014121    
      8500   309.28635      10191.785     -639.66864     -2928.7298      14             0.7927895      2.2810616      4.5983464    
      8600   322.70377      10310.937     -3273.9753     -2920.6337      13             0.73657879     2.0936518      4.2205508    
      8700   300.7408       10283.278     -641.34476     -2940.7712      16             0.90502016     2.5837331      5.2084959    
      8800   309.36287      10146.29       2271.7541     -2934.4554      15             0.84893659     2.4549533      4.9488912    
      8900   315.77294      10127.068      1429.9284     -2928.1064      14             0.7927895      2.2956388      4.6277324    
      9000   331.37139      10077.381     -2615.98       -2932.2809      15             0.84893659     2.4717403      4.9827318    
      9100   334.51223      9909.0234     -888.40117     -2925.6173      14             0.7927895      2.3461535      4.729564     
      9200   339.97394      9831.5026     -111.48521     -2925.9577      14             0.7927895      2.3646528      4.7668563    
      9300   325.22252      9760.7946      157.53681     -2933.9018      15             0.84893659     2.5519099      5.1443441    
      9400   337.05198      9738.8665      1789.0976     -2939.2776      16             0.90502016     2.7281662      5.4996556    
      9500   316.31965      9892.2193     -2870.3703     -2955.0272      18             1.0169972      3.0216073      6.0911977    
      9600   310.13406      9932.0955     -2252.4264     -2949.4672      17             0.96104032     2.8422828      5.729701     
      9700   347.04957      9937.4798      1137.391      -2953.4998      18             1.0169972      3.0078453      6.0634552    
WARNING: Energy of old configuration in fix gcmc is > MAXENERGYTEST. (../fix_gcmc.cpp:776)
      9800   324.04812      9873.8755      3008.8384     -2941.4954      16             0.90502016     2.690863       5.4244569    
      9900   319.93978      9997.3428      3221.5034     -2935.1897      15             0.84893659     2.4915289      5.0226232    
     10000   308.74257      9940.925      -1438.5998     -2936.1302      15             0.84893659     2.5056691      5.0511281    
     10100   322.25996      10020.71      -1576.6861     -2942.2893      16             0.90502016     2.6514336      5.3449719    
     10200   343.21545      10010.397      187.33998     -2966.4611      20             1.1287214      3.3177063      6.6880979    
     10300   329.28459      9787.8778     -510.31437     -2961.9929      19             1.0728908      3.223475       6.4981388    
     10400   293.02902      9688.6745      2276.2678     -2962.8489      19             1.0728908      3.2564805      6.5646739    
     10500   340.90924      9544.8119     -2301.5712     -2960.2892      19             1.0728908      3.3055633      6.6636189    
     10600   331.53458      9576.8741     -3083.7651     -2979.2026      22             1.2401937      3.8146804      7.6899378    
     10700   345.28441      9645.2923     -2712.7124     -2987.6127      23             1.2958357      3.9597858      7.982453     
     10800   332.18512      9779.8876      745.31738     -3004.5751      25             1.4069317      4.2448798      8.5571682    
     10900   373.29024      9944.696       606.32853     -3001.5725      25             1.4069317      4.1745316      8.4153547    
     11000   326.25754      10124.048     -1939.7281     -3002.2154      25             1.4069317      4.100578       8.2662731    
     11100   355.11623      10166.663     -1521.591      -3015.1607      27             1.5177779      4.4100607      8.8901533    
     11200   360.60335      10080.005     -62.109656     -3006.9972      26             1.462386       4.2832344      8.6344865    
     11300   356.99656      10060.915      1792.6523     -3007.4671      26             1.462386       4.2913615      8.6508698    
     11400   305.99634      10055.535     -1689.0327     -3009.2533      26             1.462386       4.2936578      8.6554989    
     11500   342.36508      9961.7374     -1893.4008     -3000.8569      25             1.4069317      4.1673902      8.4009586    
     11600   342.16383      9982.8783     -1757.2941     -3002.6229      25             1.4069317      4.1585649      8.3831678    
     11700   344.71212      9967.454      -706.33744     -2995.6621      24             1.3514149      3.9984001      8.0602948    
     11800   324.03117      10090.374      707.8811      -2988.6009      23             1.2958357      3.7851215      7.6303507    
     11900   326.80988      10028.302      3657.3153     -3016.145       27             1.5177779      4.4709066      9.0128111    
     12000   329.65372      10102.763     -1015.0426     -3009.7795      26             1.462386       4.273586       8.6150365    
     12100   353.02453      10194.596     -2201.8214     -3033.5801      30             1.6835806      4.8866417      9.8508833    
     12200   349.28222      10117.461     -804.51122     -3027.3669      29             1.6283751      4.7597671      9.5951193    
     12300   341.04053      10221.547      2165.7399     -3020.7487      28             1.5731076      4.5488397      9.169915     
     12400   336.32096      10277.538      1436.7522     -3027.6765      29             1.6283751      4.6856316      9.4456711    
     12500   362.03299      10343.206     -1549.7835     -3020.9857      28             1.5731076      4.4953353      9.0620565    
     12600   336.28351      10405.827     -233.38497     -3015.2103      27             1.5177779      4.3087015      8.6858253    
     12700   320.03057      10297.769     -709.58033     -3008.2556      26             1.462386       4.1926582      8.4518959    
     12800   360.44991      10274.885      301.06824     -2999.7214      25             1.4069317      4.0403807      8.1449226    
     12900   339.95735      10207.394     -738.31438     -2993.9354      24             1.3514149      3.9044119      7.8708259    
     13000   331.98749      10117.869      750.1592      -2994.7988      24             1.3514149      3.9389587      7.940468     
     13100   352.22874      9979.1386     -716.18655     -2987.9868      23             1.2958357      3.8273134      7.7154046    
     13200   333.08433      9789.6785      1467.4497     -2989.5553      23             1.2958357      3.9013836      7.8647212    
     13300   334.71461      9645.9179      29.960557     -2988.4367      23             1.2958357      3.959529       7.9819353    
     13400   313.58036      9723.6946     -1800.5983     -2982.4547      22             1.2401937      3.7570815      7.5738255    
     13500   313.27038      9755.9377     -289.28005     -2976.94        21             1.184489       3.5744525      7.2056673    
     13600   336.38808      9847.3354      1574.4458     -2968.3494      20             1.1287214      3.3726441      6.7988458    
     13700   315.1279       10012.475      2709.5729     -2962.7901      19             1.0728908      3.1511667      6.352374     
     13800   353.81648      10059.046     -786.67082     -2979.5716      22             1.2401937      3.6318267      7.3213269    
     13900   340.18196      10191.154     -2741.9774     -3007.0045      26             1.462386       4.2365198      8.5403155    
     14000   325.54358      10041.45      -698.99243     -3000.1125      25             1.4069317      4.1343078      8.3342685    
     14100   331.18651      9991.9118      835.13626     -2994.0394      24             1.3514149      3.988613       8.0405651    
     14200   305.62045      9942.3727      2002.3767     -3002.3602      25             1.4069317      4.175507       8.4173211    
     14300   318.26379      10037.876     -95.400946     -3000.7995      25             1.4069317      4.13578        8.3372362    
     14400   349.02233      10143.321     -1192.2066     -3000.7701      25             1.4069317      4.0927866      8.2505666    
     14500   341.64552      10151.322      488.19488     -2993.2523      24             1.3514149      3.9259781      7.9143007    
     14600   331.69594      10305.761      1876.0685     -3008.5988      26             1.462386       4.1894068      8.4453414    
     14700   356.48013      10349.984      704.93702     -3013.0136      27             1.5177779      4.3319491      8.7326896    
     14800   316.61331      10546.583     -2287.6963     -3008.8144      26             1.462386       4.0937455      8.2524997    
     14900   331.20561      10486.589     -467.12007     -3010.0995      26             1.462386       4.1171656      8.2997118    
     15000   319.35464      10357.422      1841.5938     -3004.1739      25             1.4069317      4.0081833      8.0800166    
     15100   307.2163       10385.872      1657.2609     -2996.3955      24             1.3514149      3.8373155      7.7355675    
     15200   327.48297      10315.164     -263.80798     -3019.9822      28             1.5731076      4.5075563      9.0866926    
     15300   319.86115      10400.055     -3012.28       -3040.5052      31             1.7387242      4.9497733      9.9781491    
     15400   329.67573      10440.043     -1650.9255     -3039.7116      31             1.7387242      4.9308144      9.93993      
     15500   397.91173      10274.308      2792.1116     -3033.6885      30             1.6835806      4.8487291      9.7744559    
     15600   326.95454      10161.555      3702.0033     -3029.8418      29             1.6283751      4.7391132      9.5534836    
     15700   337.39824      10053.927      507.64685     -3028.0052      29             1.6283751      4.7898459      9.6557545    
     15800   326.36056      9910.1642     -2358.423      -3021.414       28             1.5731076      4.6917669      9.4580391    
     15900   327.002        9823.3798      1136.1956     -3020.4876      28             1.5731076      4.7332162      9.5415959    
WARNING: Energy of old configuration in fix gcmc is > MAXENERGYTEST. (../fix_gcmc.cpp:776)
     16000   357.42483      9752.9388      2031.7387     -3013.8658      27             1.5177779      4.5971377      9.267278     
     16100   370.73497      9837.981       3855.1545     -3006.4526      26             1.462386       4.3886063      8.8469036    
     16200   335.58078      9919.2008      1430.7471     -3026.1145      29             1.6283751      4.8549031      9.7869021    
     16300   353.02256      9930.4543     -1111.6471     -3025.6613      29             1.6283751      4.8494014      9.7758112    
     16400   316.57504      9985.8675     -1523.02       -3026.4858      29             1.6283751      4.8224913      9.7215637    
     16500   371.51661      9928.9375      44.687219     -3038.0487      31             1.7387242      5.1846348      10.451602    
     16600   354.65503      10005.752      2254.3714     -3030.8766      30             1.6835806      4.9788698      10.036804    
     16700   370.02288      9930.5275      1045.7689     -3030.1662      30             1.6835806      5.0165851      10.112834    
     16800   346.45499      10074.467     -1715.0486     -3032.0041      30             1.6835806      4.9449104      9.968346     
     16900   343.93588      9977.7715     -618.19331     -3032.6593      30             1.6835806      4.992832       10.06495     
     17000   339.89248      9886.7818      1549.2863     -3028.6821      29             1.6283751      4.8708224      9.8189935    
     17100   355.83004      9939.1356     -134.90147     -3026.8844      29             1.6283751      4.8451657      9.7672725    
     17200   339.67828      9955.6128     -1126.1749     -3021.5168      28             1.5731076      4.6703485      9.414862     
     17300   327.92275      9942.4932     -183.67453     -3023.3894      28             1.5731076      4.6765112      9.4272854    
     17400   315.5289       9990.7885     -681.74003     -3016.179       27             1.5177779      4.4876941      9.0466529    
     17500   318.68191      10034.827     -526.9249      -3030.3566      29             1.6283751      4.7989627      9.674133     
     17600   343.29082      10097.579     -1024.3043     -3042.5162      31             1.7387242      5.0980454      10.277048    
     17700   361.65897      10133.174      1512.6177     -3034.3967      30             1.6835806      4.9162618      9.9105938    
     17800   356.6942       10127.922      1110.027      -3027.32        29             1.6283751      4.7548508      9.5852086    
     17900   324.97981      10104.024     -2722.6859     -3043.7487      31             1.7387242      5.0947931      10.270492    
     18000   318.65693      9890.6136     -2510.0974     -3036.2724      30             1.6835806      5.0368297      10.153644    
     18100   358.20719      9830.2981      472.57481     -3029.9924      29             1.6283751      4.8988096      9.8754123    
     18200   327.68648      9717.4386      958.74728     -3030.7239      29             1.6283751      4.955705       9.9901065    
     18300   357.83198      9685.0042     -257.16338     -3036.4311      30             1.6835806      5.1437599      10.369203    
     18400   336.46322      9782.8293      987.43466     -3049.9119      32             1.793806       5.4318123      10.949882    
     18500   361.37865      9808.5567     -289.39609     -3075.9676      36             2.0135169      6.0947604      12.286306    
     18600   362.92317      9714.214       846.38636     -3067.6173      35             1.9586814      5.9830086      12.061027    
     18700   359.45639      9926.9432     -587.00921     -3061.4146      34             1.9037845      5.687516       11.46535     
     18800   350.1607       9861.5628      148.32827     -3054.6933      33             1.8488261      5.5568343      11.201911    
     18900   357.08117      9892.3058      627.20939     -3046.5443      32             1.793806       5.3716993      10.828701    
     19000   362.45193      9865.7201      859.63754     -3039.0692      31             1.7387242      5.2178567      10.518573    
     19100   356.17563      9783.8937      1251.2527     -3039.4192      31             1.7387242      5.2614956      10.606544    
     19200   338.09812      9760.7577     -3329.0946     -3034.7879      30             1.6835806      5.1038391      10.288727    
     19300   362.82087      9648.0756     -90.01231      -3034.329       30             1.6835806      5.163448       10.408892    
     19400   360.51946      9689.616       3411.8928     -3031.7428      30             1.6835806      5.1413117      10.364268    
     19500   359.72072      9813.8259      1496.1075     -3028.4585      29             1.6283751      4.9070321      9.8919878    
     19600   334.5367       9935.9771     -1086.7338     -3055.249       33             1.8488261      5.5152171      11.118016    
     19700   343.38084      10054.127     -3102.987      -3055.5932      33             1.8488261      5.4504055      10.987363    
     19800   375.1866       10028.916     -29.184068     -3073.709       36             2.0135169      5.9608437      12.016346    
     19900   358.59549      10054.068      2485.3804     -3082.6689      37             2.0682911      6.1110967      12.319238    
     20000   351.95253      9958.4992      608.05469     -3081.2818      37             2.0682911      6.1697431      12.437462    
Loop time of 4113.22 on 1 procs for 20000 steps with 434 atoms

Performance: 0.210 ns/day, 114.256 hours/ns, 4.862 timesteps/s, 2.110 katom-step/s
871.7% CPU use with 1 MPI tasks x no OpenMP threads

MPI task timing breakdown:
Section |  min time  |  avg time  |  max time  |%varavg| %total
---------------------------------------------------------------
Pair    | 3753.4     | 3753.4     | 3753.4     |   0.0 | 91.25
Bond    | 0.0032586  | 0.0032586  | 0.0032586  |   0.0 |  0.00
Neigh   | 4.0906     | 4.0906     | 4.0906     |   0.0 |  0.10
Comm    | 0.37834    | 0.37834    | 0.37834    |   0.0 |  0.01
Output  | 1.6125     | 1.6125     | 1.6125     |   0.0 |  0.04
Modify  | 353.7      | 353.7      | 353.7      |   0.0 |  8.60
Other   |            | 0.06204    |            |       |  0.00

Nlocal:            434 ave         434 max         434 min
Histogram: 1 0 0 0 0 0 0 0 0 0
Nghost:           5026 ave        5026 max        5026 min
Histogram: 1 0 0 0 0 0 0 0 0 0
Neighs:         106144 ave      106144 max      106144 min
Histogram: 1 0 0 0 0 0 0 0 0 0
FullNghs:        28872 ave       28872 max       28872 min
Histogram: 1 0 0 0 0 0 0 0 0 0

Total # of neighbors = 106144
Ave neighs/atom = 244.57143
Ave special neighs/atom = 0
Neighbor list builds = 3422
Dangerous builds = 0

#-------------------- End ----------------------------------------------------------------
Total wall time: 1:08:36
