LAMMPS (2 Aug 2023)
package omp 8
WARNING: OpenMP support not enabled during compilation; using 1 thread only. (../fix_omp.cpp:116)
#-------------------- Initialization -----------------------------------------------------
clear
package omp 8
WARNING: OpenMP support not enabled during compilation; using 1 thread only. (../fix_omp.cpp:116)
echo            both    # echoes each input script command to both log file and screen
#-----------------------------------------------------------------------------------------
units           metal   # determines units of all quantities used in the input file
atom_style      full
boundary        p p p   # periodic boundary condition
#-----------------------------------------------------------------------------------------
variable Tini equal 273+25   # [K] (Initial temperature)
variable Tfin equal 273+25   # [K] (Annealing temperature)

variable Pfin index   13.0   # [bar] (Note 1.0 bar = 0.1 MPa)

variable Nout equal    100   # every 100 time steps to the specified file

variable   natom index 5
variable   nmove index 5
variable   mu    index -5.46 # Fermi Energy (eV) from MOPAC2016 PM7
variable   disp  index 0.01

variable   tfac  equal 5.0/3.0 # (3 trans + 2 rot)/(3 trans) for molecular (2 atoms)
# trans = 3, rot = 2 (line), rot = 3 (non-line), vib = 3n-5 (line), vib = 3n-6 (non-line)
# total = 3n = 3+2+3n-5 = 3+3+3n-6
# vib = about 0.0 at R.T. for molecular (2 atoms)

#-------------------- Atom & Lattice description ----------------------------------------
read_data       data.lammps
Reading data file ...
  orthogonal box = (0 0 0) to (24.07 24.07 24.07)
  1 by 1 by 1 MPI processor grid
  reading atoms ...
  360 atoms
Finding 1-2 1-3 1-4 neighbors ...
  special bond factors lj:    0        0        0       
  special bond factors coul:  0        0        0       
     0 = max # of 1-2 neighbors
     0 = max # of 1-3 neighbors
     0 = max # of 1-4 neighbors
     1 = max # of special neighbors
  special bonds CPU = 0.000 seconds
  read_data CPU = 0.005 seconds

replicate 1 1 1
Replication is creating a 1x1x1 = 1 times larger system...
  orthogonal box = (0 0 0) to (24.07 24.07 24.07)
  1 by 1 by 1 MPI processor grid
  360 atoms
Finding 1-2 1-3 1-4 neighbors ...
  special bond factors lj:    0        0        0       
  special bond factors coul:  0        0        0       
     0 = max # of 1-2 neighbors
     0 = max # of 1-3 neighbors
     0 = max # of 1-4 neighbors
     1 = max # of special neighbors
  special bonds CPU = 0.000 seconds
  replicate CPU = 0.001 seconds

molecule        my_one_gas ./molecular_files/H2.txt
Read molecule template my_one_gas:
  1 molecules
  0 fragments
  2 atoms with max type 3
  0 bonds with max type 0
  0 angles with max type 0
  0 dihedrals with max type 0
  0 impropers with max type 0
group           gas type 3
0 atoms in group gas
variable        atoms_of_gas equal 2 # The number of atoms per gas molecule

variable elem string "C H H" # specifies the potential file used

# set overlap_cutoff (Note: H-H: 1.06 A) = x 85% => 0.90
variable overlap_cutoff_value equal 0.90

#-------------------- Force field --------------------------------------------------------
pair_style hybrid/overlay m3gnet /mnt/d/lammps/potentials/M3GNET momb 12.0 0.75 20.0

#pair_coeff      * *  m3gnet MP-2021.2.8-EFS ${elem} # M3GNet <https://github.com/materialsvirtuallab/m3gnet> will be called
pair_coeff      * *  m3gnet M3GNet-MP-2021.2.8-PES ${elem} # MatGL <https://github.com/materialsvirtuallab/matgl> will be called
pair_coeff      * *  m3gnet M3GNet-MP-2021.2.8-PES C H H 

# atom type 1, C
variable C6_1 equal 1.75  # Jnm6mol-1
variable R0_1 equal 1.452 # Angstrom

# atom type 2, H
variable C6_2 equal 0.14  # Jnm6mol-1
variable R0_2 equal 1.001 # Angstrom

# atom type 3, H
variable C6_3 equal 0.14  # Jnm6mol-1
variable R0_3 equal 1.001 # Angstrom

# convert [Jnm6mol-1] to [eVA6], (sqrt() or ()^0.5)
#-----------------------------------------------------------------------------------------
pair_coeff 1 1 momb 0.0 1.0 1.0 $(sqrt(v_C6_1 * v_C6_1)*10.364) $(v_R0_1 + v_R0_1) # C-C
pair_coeff 1 1 momb 0.0 1.0 1.0 18.137000000000000455 $(v_R0_1 + v_R0_1) 
pair_coeff 1 1 momb 0.0 1.0 1.0 18.137000000000000455 2.9039999999999999147 
pair_coeff 1 2 momb 0.0 1.0 1.0 $(sqrt(v_C6_1 * v_C6_2)*10.364) $(v_R0_1 + v_R0_2) # C-H
pair_coeff 1 2 momb 0.0 1.0 1.0 5.1299182761521660012 $(v_R0_1 + v_R0_2) 
pair_coeff 1 2 momb 0.0 1.0 1.0 5.1299182761521660012 2.4529999999999998472 
pair_coeff 1 3 momb 0.0 1.0 1.0 $(sqrt(v_C6_1 * v_C6_3)*10.364) $(v_R0_1 + v_R0_3) # C-Hg
pair_coeff 1 3 momb 0.0 1.0 1.0 5.1299182761521660012 $(v_R0_1 + v_R0_3) 
pair_coeff 1 3 momb 0.0 1.0 1.0 5.1299182761521660012 2.4529999999999998472 
#-----------------------------------------------------------------------------------------
pair_coeff 2 2 momb 0.0 1.0 1.0 $(sqrt(v_C6_2 * v_C6_2)*10.364) $(v_R0_2 + v_R0_2) # H-H
pair_coeff 2 2 momb 0.0 1.0 1.0 1.4509600000000002495 $(v_R0_2 + v_R0_2) 
pair_coeff 2 2 momb 0.0 1.0 1.0 1.4509600000000002495 2.0019999999999997797 
pair_coeff 2 3 momb 0.0 1.0 1.0 $(sqrt(v_C6_2 * v_C6_3)*10.364) $(v_R0_2 + v_R0_3) # H-Hg
pair_coeff 2 3 momb 0.0 1.0 1.0 1.4509600000000002495 $(v_R0_2 + v_R0_3) 
pair_coeff 2 3 momb 0.0 1.0 1.0 1.4509600000000002495 2.0019999999999997797 
#-----------------------------------------------------------------------------------------
pair_coeff 3 3 momb 0.0 1.0 1.0 $(sqrt(v_C6_3 * v_C6_3)*10.364) $(v_R0_3 + v_R0_3) # Hg-Hg
pair_coeff 3 3 momb 0.0 1.0 1.0 1.4509600000000002495 $(v_R0_3 + v_R0_3) 
pair_coeff 3 3 momb 0.0 1.0 1.0 1.4509600000000002495 2.0019999999999997797 
#-----------------------------------------------------------------------------------------

#-------------------- Energy Minimization ------------------------------------------------
# 0 [K], structure optimization
#fix             emin all box/relax x 0.0 y 0.0 z 0.0
#fix             emin all box/relax aniso 0.0
fix             emin all box/relax iso ${Pfin}
fix             emin all box/relax iso 13.0
min_style       cg
min_modify      dmax 0.2
min_modify      line quadratic
minimize        1.0e-4 1.0e-6 100 1000

CITE-CITE-CITE-CITE-CITE-CITE-CITE-CITE-CITE-CITE-CITE-CITE-CITE

Your simulation uses code contributions which should be cited:

- Pair style momb: doi:10.1021/jp412098n

@Article{pair_momb_2015,
title = {A Force Field for Describing the Polyvinylpyrrolidone-Mediated
    Solution-Phase Synthesis of Shape-Selective {Ag} Nanoparticles},
volume = {118},
number = {6},
url = {https://doi.org/10.1021/jp412098n},
doi = {10.1021/jp412098n},
journal = {J.~Phys.\ Chem.~C},
author = {Zhou, Ya and Wissam A. Saidi and Kristen A. Fichthorn},
year = {2014},
pages = {3366--3374}
}

CITE-CITE-CITE-CITE-CITE-CITE-CITE-CITE-CITE-CITE-CITE-CITE-CITE

No /omp style for force computation currently active
Neighbor list info ...
  update: every = 1 steps, delay = 0 steps, check = yes
  max neighbors/atom: 2000, page size: 100000
  master list distance cutoff = 14
  ghost atom cutoff = 14
  binsize = 7, bins = 4 4 4
  2 neighbor lists, perpetual/occasional/extra = 2 0 0
  (1) pair m3gnet, perpetual
      attributes: full, newton on, omp, cut 7
      pair build: full/bin/omp
      stencil: full/bin/3d
      bin: standard
  (2) pair momb, perpetual
      attributes: half, newton on, omp
      pair build: half/bin/newton/omp
      stencil: half/bin/3d
      bin: standard
WARNING: Energy due to 1 extra global DOFs will be included in minimizer energies
 (../min.cpp:225)
Per MPI rank memory allocation (min/avg/max) = 8 | 8 | 8 Mbytes
   Step          Temp          E_pair         E_mol          TotEng         Press          Volume    
         0   0             -2857.5322      0             -2857.5322      6597.4938      13945.313    
         1   0             -2857.5501      0             -2857.5501      6450.784       13949.497    
Loop time of 0.142764 on 1 procs for 1 steps with 360 atoms

903.7% CPU use with 1 MPI tasks x no OpenMP threads

Minimization stats:
  Stopping criterion = energy tolerance
  Energy initial, next-to-last, final = 
     -2857.53215445711  -2857.53215445711  -2857.55009020958
  Force two-norm initial, final = 174.13748 170.38187
  Force max component initial, final = 171.93392 168.13666
  Final line search alpha, max atom move = 5.816188e-07 9.7791445e-05
  Iterations, force evaluations = 1 1

MPI task timing breakdown:
Section |  min time  |  avg time  |  max time  |%varavg| %total
---------------------------------------------------------------
Pair    | 0.14264    | 0.14264    | 0.14264    |   0.0 | 99.91
Bond    | 3.61e-07   | 3.61e-07   | 3.61e-07   |   0.0 |  0.00
Neigh   | 0          | 0          | 0          |   0.0 |  0.00
Comm    | 2.1776e-05 | 2.1776e-05 | 2.1776e-05 |   0.0 |  0.02
Output  | 0          | 0          | 0          |   0.0 |  0.00
Modify  | 7.465e-06  | 7.465e-06  | 7.465e-06  |   0.0 |  0.01
Other   |            | 9.521e-05  |            |       |  0.07

Nlocal:            360 ave         360 max         360 min
Histogram: 1 0 0 0 0 0 0 0 0 0
Nghost:           3144 ave        3144 max        3144 min
Histogram: 1 0 0 0 0 0 0 0 0 0
Neighs:          48732 ave       48732 max       48732 min
Histogram: 1 0 0 0 0 0 0 0 0 0
FullNghs:        17232 ave       17232 max       17232 min
Histogram: 1 0 0 0 0 0 0 0 0 0

Total # of neighbors = 48732
Ave neighs/atom = 135.36667
Ave special neighs/atom = 0
Neighbor list builds = 0
Dangerous builds = 0
unfix           emin

#-------------------- Settings -----------------------------------------------------------
reset_timestep 0

timestep 0.0005  # 0.5 [fs] (Recommend 0.1-1.0 [fs]), sets the timestep for subsequent simulations

variable        ngas equal count(gas)/${atoms_of_gas} # The number of molecules (e.g., H2, N2, CO2, H2O, He, Ar, Kr, etc)
variable        ngas equal count(gas)/2 

variable        wtp  equal mass(gas)/mass(all)*100 # Mass Percent Concentration, wt.% [dimensionless] (Absolute, Not excess)

#variable        molc equal (v_ngas/6.022e23)/(vol*1e-30) # molar concentration [mol/m^3] (Absolute, Not excess)
variable        molL equal (v_ngas/6.022e23)/(vol*1e-27) # molar concentration [mol/L] = [mol/dm^3] (Absolute, Not excess)

variable        mc   equal (mass(gas)/6.022e23/1000)/(vol*1e-30) # Mass Concentration [kg/m^3] (Absolute, Not excess)

thermo ${Nout}   # computes and prints thermodynamic
thermo 100   
thermo_style custom step temp vol press etotal v_ngas v_wtp v_molL v_mc # specifies content of thermodynamic data to be printed in screen

# ----- averaging -----
variable        rho equal density
variable        p equal press
variable        t equal temp
variable        nugget equal 1.0e-8
variable        lambda equal 1.0
variable        muex equal ${mu}-temp*ln(density*${lambda}+${nugget})
variable        muex equal -5.46-temp*ln(density*${lambda}+${nugget})
variable        muex equal -5.46-temp*ln(density*1+${nugget})
variable        muex equal -5.46-temp*ln(density*1+1e-08)
fix             ave all ave/time 10 ${Nout} $(10*v_Nout) v_rho v_p v_t v_muex v_ngas v_wtp v_molL v_mc ave one file results.txt
fix             ave all ave/time 10 100 $(10*v_Nout) v_rho v_p v_t v_muex v_ngas v_wtp v_molL v_mc ave one file results.txt
fix             ave all ave/time 10 100 1000 v_rho v_p v_t v_muex v_ngas v_wtp v_molL v_mc ave one file results.txt

velocity all create ${Tini} 12345 mom yes rot no # sets the velocity of a group of atoms
velocity all create 298 12345 mom yes rot no 

#---------- output file settings --------------------------------------
dump            d1 all cfg ${Nout} cfg/run.*.cfg mass type xs ys zs id type vx vy vz fx fy fz
dump            d1 all cfg 100 cfg/run.*.cfg mass type xs ys zs id type vx vy vz fx fy fz
dump_modify     d1 element ${elem}
dump_modify     d1 element C H H
#dump_modify     d1 sort id
#----------------------------------------------------------------------

#-------------------- Run the simulation -------------------------------------------------
compute mdtemp all temp
compute_modify mdtemp dynamic/dof yes

## Equilibrium system, calculation settings
#fix f1 all nvt temp ${Tini} ${Tfin} $(20*dt)
fix f1 all npt temp ${Tini} ${Tfin} $(20*dt) iso 0.0 ${Pfin} $(200*dt)
fix f1 all npt temp 298 ${Tfin} $(20*dt) iso 0.0 ${Pfin} $(200*dt)
fix f1 all npt temp 298 298 $(20*dt) iso 0.0 ${Pfin} $(200*dt)
fix f1 all npt temp 298 298 0.010000000000000000208 iso 0.0 ${Pfin} $(200*dt)
fix f1 all npt temp 298 298 0.010000000000000000208 iso 0.0 13.0 $(200*dt)
fix f1 all npt temp 298 298 0.010000000000000000208 iso 0.0 13.0 0.10000000000000000555
fix_modify f1 temp mdtemp

# non-equilibrium system, calculation settings
#fix f1 all nve
#fix f2 all langevin ${Tini} ${Tfin} $(20*dt) 12345
#fix_modify f2 temp mdtemp

# GCMC
fix f3 gas gcmc ${Nout} ${natom} ${nmove} 0 12345 ${Tfin} ${mu} ${disp} mol my_one_gas pressure ${Pfin} tfac_insert ${tfac} full_energy overlap_cutoff ${overlap_cutoff_value}
fix f3 gas gcmc 100 ${natom} ${nmove} 0 12345 ${Tfin} ${mu} ${disp} mol my_one_gas pressure ${Pfin} tfac_insert ${tfac} full_energy overlap_cutoff ${overlap_cutoff_value}
fix f3 gas gcmc 100 5 ${nmove} 0 12345 ${Tfin} ${mu} ${disp} mol my_one_gas pressure ${Pfin} tfac_insert ${tfac} full_energy overlap_cutoff ${overlap_cutoff_value}
fix f3 gas gcmc 100 5 5 0 12345 ${Tfin} ${mu} ${disp} mol my_one_gas pressure ${Pfin} tfac_insert ${tfac} full_energy overlap_cutoff ${overlap_cutoff_value}
fix f3 gas gcmc 100 5 5 0 12345 298 ${mu} ${disp} mol my_one_gas pressure ${Pfin} tfac_insert ${tfac} full_energy overlap_cutoff ${overlap_cutoff_value}
fix f3 gas gcmc 100 5 5 0 12345 298 -5.46 ${disp} mol my_one_gas pressure ${Pfin} tfac_insert ${tfac} full_energy overlap_cutoff ${overlap_cutoff_value}
fix f3 gas gcmc 100 5 5 0 12345 298 -5.46 0.01 mol my_one_gas pressure ${Pfin} tfac_insert ${tfac} full_energy overlap_cutoff ${overlap_cutoff_value}
fix f3 gas gcmc 100 5 5 0 12345 298 -5.46 0.01 mol my_one_gas pressure 13.0 tfac_insert ${tfac} full_energy overlap_cutoff ${overlap_cutoff_value}
fix f3 gas gcmc 100 5 5 0 12345 298 -5.46 0.01 mol my_one_gas pressure 13.0 tfac_insert 1.66666666666667 full_energy overlap_cutoff ${overlap_cutoff_value}
fix f3 gas gcmc 100 5 5 0 12345 298 -5.46 0.01 mol my_one_gas pressure 13.0 tfac_insert 1.66666666666667 full_energy overlap_cutoff 0.9

run             20000 # 10 ps
No /omp style for force computation currently active
0 atoms in group FixGCMC:gcmc_exclusion_group:f3
0 atoms in group FixGCMC:rotation_gas_atoms:f3
Per MPI rank memory allocation (min/avg/max) = 6.875 | 6.875 | 6.875 Mbytes
   Step          Temp          Volume         Press          TotEng         v_ngas         v_wtp          v_molL          v_mc     
         0   298            13949.497      7509.6376     -2843.7216      0              0              0              0            
       100   354.94432      14116.99      -2692.59       -2837.7104      0              0              0              0            
       200   286.64838      14027.348     -368.63166     -2862.2537      4              0.22780127     0.47352583     0.95457125   
       300   288.37449      13388.033      382.78259     -2858.8548      3              0.17094831     0.37210349     0.75011598   
       400   273.33915      13033.871      124.1575      -2866.2153      4              0.22780127     0.50961926     1.0273313    
       500   332.4857       12875.729      1009.377      -2869.8547      5              0.28458952     0.64484813     1.2999364    
       600   281.91622      12451.051      1375.182      -2878.6755      6              0.34131315     0.80021094     1.6131292    
       700   301.95716      12664.975     -1387.2194     -2877.3578      6              0.34131315     0.7866946      1.5858819    
       800   324.43092      12727.896     -952.36554     -2869.3032      5              0.28458952     0.65233796     1.315035     
       900   312.97002      12487.61      -1420.3028     -2868.0652      5              0.28458952     0.66489018     1.3403388    
      1000   310.55168      12477.437     -149.6971      -2870.2313      5              0.28458952     0.66543226     1.3414316    
      1100   310.70565      12324.187      1087.7728     -2878.6911      6              0.34131315     0.80844825     1.6297346    
      1200   291.41445      12127.027     -841.29202     -2871.5322      5              0.28458952     0.68465995     1.3801923    
      1300   320.65976      12087.803      717.98281     -2883.8707      7              0.39797229     0.96163425     1.9385393    
      1400   310.63893      12099.634     -962.07929     -2876.9603      6              0.34131315     0.82345198     1.6599804    
      1500   326.3008       12144.639     -128.95302     -2883.4041      7              0.39797229     0.95713382     1.9294669    
      1600   296.16058      12334.673      1443.0989     -2898.4148      9              0.51109751     1.2116414      2.4425237    
      1700   306.03366      12615.6       -1547.2371     -2903.1312      10             0.56756381     1.3162893      2.6534812    
      1800   307.30171      12522.387      904.43966     -2909.7909      11             0.62396605     1.458696       2.9405561    
      1900   349.32593      12506.037      356.20452     -2914.9933      12             0.68030434     1.5933852      3.2120734    
      2000   294.61941      12454.287     -1651.9343     -2915.3329      12             0.68030434     1.6000061      3.2254203    
      2100   300.92226      12305.025      871.36513     -2911.2096      11             0.62396605     1.4844632      2.9924996    
      2200   338.55344      12252.034     -1111.4349     -2901.7793      10             0.56756381     1.3553487      2.7322204    
      2300   322.47118      12044.419      337.59686     -2901.3883      10             0.56756381     1.3787114      2.7793168    
      2400   300.67518      11951.58       1599.9114     -2904.2031      10             0.56756381     1.3894213      2.8009065    
      2500   317.64036      11792.964     -2540.6413     -2896.7971      9              0.51109751     1.2672981      2.554721     
      2600   304.58255      11657.817     -467.89961     -2891.3064      8              0.45456704     1.1395464      2.2971887    
      2700   311.69058      11466.158     -711.94316     -2891.094       8              0.45456704     1.1585941      2.3355866    
      2800   307.56401      11348.677     -168.58202     -2891.4251      8              0.45456704     1.1705879      2.3597646    
      2900   305.56636      11322.064      2111.2916     -2885.8565      7              0.39797229     1.0266719      2.0696474    
      3000   290.1258       11175.57       1046.8393     -2885.3794      7              0.39797229     1.0401299      2.0967771    
      3100   313.58223      11314.708     -770.99964     -2878.7165      6              0.34131315     0.8805766      1.7751367    
      3200   304.5294       11341.043     -1630.8013     -2879.0538      6              0.34131315     0.87853181     1.7710147    
      3300   275.94061      11268.416     -400.79384     -2887.801       7              0.39797229     1.0315598      2.0795007    
      3400   257.14652      11246          1522.7507     -2886.7456      7              0.39797229     1.0336159      2.0836457    
      3500   314.02111      11197.531      1451.8675     -2893.0787      8              0.45456704     1.1863886      2.391617     
      3600   288.52269      11060.382      310.54425     -2893.7804      8              0.45456704     1.2010999      2.4212732    
      3700   308.7224       10782.997     -351.15759     -2891.5912      8              0.45456704     1.2319973      2.4835586    
      3800   325.10493      10596.078     -1702.4113     -2884.7057      7              0.39797229     1.097014       2.2114485    
      3900   307.1638       10169.839     -587.3592      -2892.5573      8              0.45456704     1.3062766      2.6332969    
      4000   328.19103      9849.0918      777.78562     -2890.4683      8              0.45456704     1.3488171      2.7190533    
      4100   323.84653      9628.0119      1627.6304     -2883.1663      7              0.39797229     1.2073152      2.4338026    
      4200   320.20676      9657.5292     -928.81289     -2876.5319      6              0.34131315     1.0316787      2.0797405    
      4300   289.41108      9783.3786     -1873.7639     -2871.8652      5              0.28458952     0.84867301     1.710823     
      4400   280.80608      10047.062     -630.77392     -2867.0581      4              0.22780127     0.66111979     1.3327382    
      4500   299.65534      9932.518       2444.5986     -2859.2373      3              0.17094831     0.50155798     1.0110807    
      4600   300.80718      9804.8861      1863.1112     -2853.0911      2              0.11403052     0.33872456     0.68282807   
      4700   300.23558      9763.3921     -1568.2116     -2860.0168      3              0.17094831     0.51024619     1.0285951    
      4800   273.02805      9783.5526     -639.74642     -2863.411       3              0.17094831     0.50919475     1.0264755    
      4900   297.75563      9750.7184      700.25072     -2869.7177      4              0.22780127     0.68121253     1.3732427    
      5000   299.96017      9768.4228      1071.7914     -2861.3665      3              0.17094831     0.50998342     1.0280654    
      5100   298.00633      9993.3545      1599.4863     -2868.4849      4              0.22780127     0.66467286     1.3399007    
      5200   306.52063      9938.702       1147.8916     -2859.7381      3              0.17094831     0.5012459      1.0104516    
      5300   307.81847      10053.813      231.88062     -2872.1672      5              0.28458952     0.82584485     1.6648041    
      5400   292.50395      10011.878     -1526.9334     -2875.3499      5              0.28458952     0.82930387     1.6717771    
      5500   300.02053      9840.8404     -2927.1963     -2873.8116      5              0.28458952     0.84371751     1.7008333    
      5600   344.18581      9931.7742      2413.9993     -2883.0701      7              0.39797229     1.1703896      2.359365     
      5700   307.99593      10013.053     -389.0612      -2877.4909      6              0.34131315     0.9950479      2.0058972    
      5800   301.48368      10007.587     -76.560496     -2877.8562      6              0.34131315     0.99559135     2.0069927    
      5900   290.76005      10086.126     -410.68669     -2881.5512      6              0.34131315     0.98783892     1.9913647    
      6000   306.37111      10152.404     -3841.7024     -2878.3548      6              0.34131315     0.98138999     1.9783644    
      6100   314.13568      10121.085     -708.54943     -2871.0072      5              0.28458952     0.82035564     1.6537385    
      6200   297.13312      9944.9041      2908.6953     -2865.5748      4              0.22780127     0.66791107     1.3464286    
      6300   312.19659      9903.267      -453.5357      -2864.7536      4              0.22780127     0.67071922     1.3520895    
      6400   311.95678      9738.3472     -1159.7282     -2870.6405      5              0.28458952     0.85259739     1.718734     
      6500   288.11632      9548.6689     -172.51303     -2866.0125      4              0.22780127     0.69562696     1.4023005    
      6600   301.91919      9540.6814     -38.019336     -2871.934       5              0.28458952     0.87026168     1.7543431    
      6700   304.86827      9564.8643      463.62944     -2871.7124      5              0.28458952     0.86806139     1.7499076    
      6800   307.39595      9787.0689     -760.22467     -2865.5941      4              0.22780127     0.67868241     1.3681423    
      6900   288.03302      9869.9259      192.07093     -2871.9285      5              0.28458952     0.84123118     1.6958211    
      7000   305.77291      9801.5043      2880.7002     -2877.7376      6              0.34131315     1.0165243      2.049191     
      7100   316.71105      9864.4937      1830.3761     -2900.4658      9              0.51109751     1.51505        3.054159     
      7200   302.16257      9916.7126     -4097.0777     -2905.7383      10             0.56756381     1.6745246      3.3756406    
      7300   286.86631      9938.5925     -2241.4025     -2913.6595      11             0.62396605     1.8379219      3.70503      
      7400   319.73725      9843.722       368.81109     -2904.8384      10             0.56756381     1.6869411      3.4006707    
      7500   329.90411      9823.7943      1278.3432     -2911.3816      11             0.62396605     1.8593994      3.748326     
      7600   303.98799      9897.1464      900.21109     -2920.1839      12             0.68030434     2.013402       4.0587769    
      7700   299.99119      9988.9077     -2042.2735     -2927.858       13             0.73657879     2.1611485      4.356616     
      7800   304.34952      10000.972     -832.4545      -2939.4286      15             0.84893659     2.4906247      5.0208005    
      7900   323.71572      10080.366      681.1818      -2958.9707      18             1.0169972      2.9652099      5.9775073    
      8000   325.83282      10022.064      202.89508     -2951.9645      17             0.96104032     2.8167674      5.678265     
      8100   328.50791      10076.743     -1340.3634     -2964.5446      19             1.0728908      3.1310693      6.3118601    
      8200   332.95115      9981.8553     -1248.3622     -2957.5361      18             1.0169972      2.9944736      6.0364994    
      8300   321.80293      9933.0496      1553.4386     -2951.1385      17             0.96104032     2.8420098      5.7291506    
      8400   338.85927      9973.4445      2469.1902     -2944.0165      16             0.90502016     2.663999       5.3703023    
      8500   342.42529      10043.277      249.9242      -2955.3801      18             1.0169972      2.9761603      5.999582     
      8600   341.80667      10224.03      -2689.1627     -2969.5355      20             1.1287214      3.2483821      6.5483485    
      8700   347.41071      10043.912     -1770.8265     -2967.8795      20             1.1287214      3.3066357      6.6657807    
      8800   334.86022      10052.889      1922.2896     -2981.7769      22             1.2401937      3.6340511      7.3258109    
      8900   346.49366      9992.4365      721.14173     -2981.5848      22             1.2401937      3.6560366      7.3701311    
      9000   332.37867      9868.3083     -237.25991     -2994.189       24             1.3514149      4.0385715      8.1412756    
      9100   343.11919      9756.0374     -479.23877     -2995.0137      24             1.3514149      4.0850468      8.2349641    
      9200   328.81579      9738.3715      760.36982     -3010.1456      26             1.462386       4.4334954      8.9373946    
      9300   321.68476      9996.8586     -1797.1437     -3007.8181      26             1.462386       4.3188592      8.7063019    
      9400   336.56814      10094.941     -567.10476     -3007.7352      26             1.462386       4.2768972      8.6217115    
      9500   302.25189      10248.733      305.41796     -3002.8891      25             1.4069317      4.0506906      8.1657062    
      9600   333.09382      10329.537      658.6559      -3001.0227      25             1.4069317      4.0190036      8.101829     
      9700   350.79193      10279.458     -65.680777     -3000.8843      25             1.4069317      4.0385833      8.1412992    
      9800   336.55617      10209.933     -221.51816     -3001.2553      25             1.4069317      4.0660842      8.1967377    
      9900   327.20801      10097.4        105.54963     -2993.8454      24             1.3514149      3.9469436      7.9565646    
     10000   328.72591      10049.799     -584.04763     -2989.233       23             1.2958357      3.8004033      7.661157     
     10100   337.3683       9910.8771      1012.0678     -2987.3206      23             1.2958357      3.8536742      7.7685447    
     10200   334.46177      9974.3109     -304.1293      -2986.7804      23             1.2958357      3.8291659      7.719139     
     10300   328.577        10025.555     -809.5317      -3007.4677      26             1.462386       4.3064974      8.681382     
     10400   348.26863      10043.254     -296.56691     -3001.673       25             1.4069317      4.1335655      8.332772     
     10500   350.98428      10152.553     -741.64979     -3009.3282      26             1.462386       4.2526274      8.5727866    
     10600   341.9868       10143.792      564.32352     -3001.1008      25             1.4069317      4.0925966      8.2501836    
     10700   355.38411      10172.889     -1340.6063     -3001.84        25             1.4069317      4.0808907      8.2265859    
     10800   341.70215      10142.916     -710.25256     -3007.5081      26             1.462386       4.2566679      8.5809317    
     10900   337.92263      10224.378      464.91716     -3014.4633      27             1.5177779      4.3851668      8.8399701    
     11000   353.26999      10358.493     -487.41115     -3026.7377      29             1.6283751      4.649012       9.3718503    
     11100   348.55898      10287.382      2462.7698     -3033.1582      30             1.6835806      4.8425668      9.7620337    
     11200   353.72535      10447.326     -1940.5192     -3026.5829      29             1.6283751      4.6094817      9.292162     
     11300   362.48539      10350.979     -3021.9721     -3032.2008      30             1.6835806      4.8128141      9.7020556    
     11400   354.87654      10234.98       1040.754      -3025.3914      29             1.6283751      4.7051152      9.4849476    
     11500   362.76678      10037.169      2328.7668     -3018.7425      28             1.5731076      4.6323998      9.3383621    
     11600   340.92251      9936.3109      1080.0561     -3013.1713      27             1.5177779      4.5122987      9.0962527    
     11700   335.82366      9991.5105     -2551.1209     -3014.7701      27             1.5177779      4.4873699      9.0459991    
     11800   319.39622      9898.1963     -1011.6966     -3014.1308      27             1.5177779      4.529674       9.1312793    
     11900   327.34975      10008.039     -27.916072     -3013.6786      27             1.5177779      4.4799587      9.0310591    
WARNING: Energy of old configuration in fix gcmc is > MAXENERGYTEST. (../fix_gcmc.cpp:776)
     12000   337.57131      9898.8856      767.27109     -3013.9522      27             1.5177779      4.5293586      9.1306434    
WARNING: Energy of old configuration in fix gcmc is > MAXENERGYTEST. (../fix_gcmc.cpp:776)
     12100   347.76836      10014.24       23.393742     -3001.7538      25             1.4069317      4.1455413      8.3569139    
WARNING: Energy of old configuration in fix gcmc is > MAXENERGYTEST. (../fix_gcmc.cpp:776)
     12200   337.93508      10067.404      302.75363     -2982.1324      22             1.2401937      3.6288118      7.3152492    
WARNING: Energy of old configuration in fix gcmc is > MAXENERGYTEST. (../fix_gcmc.cpp:776)
     12300   324.93655      9947.6459     -914.02416     -2971.971       21             1.184489       3.5055666      7.0668016    
WARNING: Energy of old configuration in fix gcmc is > MAXENERGYTEST. (../fix_gcmc.cpp:776)
     12400   329.0801       10075.726     -31.554532     -2960.9038      19             1.0728908      3.1313852      6.3124967    
WARNING: Energy of old configuration in fix gcmc is > MAXENERGYTEST. (../fix_gcmc.cpp:776)
     12500   344.43429      9932.527      -4381.1607     -2956.8224      19             1.0728908      3.176531       6.4035053    
     12600   321.80368      9790.1928      1059.9753     -2959.5081      19             1.0728908      3.2227128      6.4966023    
     12700   369.15967      9719.5933      4815.2186     -2960.2835      19             1.0728908      3.2461214      6.5437912    
     12800   326.16949      9713.367      -429.60918     -2969.0062      20             1.1287214      3.4191602      6.8926167    
WARNING: Energy of old configuration in fix gcmc is > MAXENERGYTEST. (../fix_gcmc.cpp:776)
     12900   357.01036      9721.3547     -4430.22       -2954.8127      18             1.0169972      3.0747157      6.1982579    
     13000   322.03323      9691.7577     -2660.813      -2961.243       19             1.0728908      3.2554445      6.5625855    
     13100   323.66576      9848.4507     -1735.7903     -2954.9082      18             1.0169972      3.0350359      6.1182682    
     13200   313.78665      9773.4175      2798.2288     -2956.2769      18             1.0169972      3.0583367      6.1652399    
WARNING: Energy of old configuration in fix gcmc is > MAXENERGYTEST. (../fix_gcmc.cpp:776)
     13300   351.60199      9877.4368     -1226.9536     -2935.0456      15             0.84893659     2.5217745      5.0835948    
     13400   304.12725      9994.5032     -1722.717      -2928.5708      14             0.7927895      2.3260876      4.6891135    
     13500   317.00951      9809.689       910.47071     -2957.6251      18             1.0169972      3.0470285      6.1424438    
WARNING: Energy of old configuration in fix gcmc is > MAXENERGYTEST. (../fix_gcmc.cpp:776)
     13600   319.99777      9820.0059     -1698.9083     -2929.4697      14             0.7927895      2.3674212      4.7724371    
     13700   311.74602      9706.4417      1036.7775     -2923.6373      13             0.73657879     2.2240398      4.4833973    
     13800   331.55842      9776.9401      1202.1297     -2944.3804      16             0.90502016     2.7175421      5.4782387    
     13900   311.87639      9855.8663     -464.6057      -2957.5571      18             1.0169972      3.0327524      6.1136648    
     14000   350.01341      10057.073     -2394.9744     -2967.0905      20             1.1287214      3.3023084      6.6570575    
     14100   346.762        10091.291      223.90199     -2959.8689      19             1.0728908      3.1265554      6.3027605    
     14200   334.90538      9972.9948      2357.4255     -2960.9674      19             1.0728908      3.1636415      6.3775215    
     14300   343.62807      9929.8719      2489.0004     -2960.5347      19             1.0728908      3.1773803      6.4052175    
     14400   363.53692      9802.4906     -3075.4197     -2960.8895      19             1.0728908      3.2186697      6.488452     
     14500   337.86457      9707.5361     -2766.5693     -2961.5987      19             1.0728908      3.2501532      6.5519189    
     14600   320.69702      9648.093       811.198       -2964.0595      19             1.0728908      3.2701778      6.5922861    
     14700   331.80916      9744.5863      2833.9951     -2961.8239      19             1.0728908      3.2377957      6.5270076    
     14800   334.58548      9922.8123     -756.46209     -2956.2605      18             1.0169972      3.0122914      6.0724179    
     14900   340.99154      10085.891      23.200133     -2955.3652      18             1.0169972      2.9635857      5.9742331    
     15000   314.3925       10056.795     -206.8282      -2950.6101      17             0.96104032     2.8070397      5.6586552    
     15100   351.55825      9989.2478     -485.1614      -2941.7391      16             0.90502016     2.6597845      5.3618063    
     15200   320.17974      10017.589     -35.693073     -2963.6067      19             1.0728908      3.1495581      6.3491313    
     15300   332.967        9920.2813     -2100.0592     -2962.7445      19             1.0728908      3.1804521      6.4114098    
     15400   346.78622      9870.4616      607.02451     -2962.5763      19             1.0728908      3.196505       6.4437705    
     15500   344.11629      9758.3052      3116.5394     -2975.3584      21             1.184489       3.5735853      7.2039191    
     15600   347.55695      9789.5871     -568.29643     -2982.1666      22             1.2401937      3.7317931      7.522847     
     15700   349.38425      9847.932      -2004.0774     -2975.0831      21             1.184489       3.5410618      7.1383556    
     15800   313.35035      9840.2675     -608.22137     -2970.897       20             1.1287214      3.3750665      6.8037291    
     15900   338.99827      9951.3901      1469.7411     -2969.2731      20             1.1287214      3.3373787      6.727755     
     16000   325.29751      9890.4491      1797.7306     -2962.8922      19             1.0728908      3.1900452      6.4307483    
     16100   326.62854      9936.2131     -585.57868     -2976.9768      21             1.184489       3.5096002      7.0749328    
     16200   300.7344       9947.5808     -641.56504     -2983.3645      22             1.2401937      3.6725224      7.4033645    
     16300   332.76457      9897.5497      599.19068     -2974.6493      21             1.184489       3.52331        7.1025701    
     16400   327.85174      9969.2275      1457.0464     -2980.6954      22             1.2401937      3.6645481      7.3872892    
     16500   327.80038      10076.939     -299.00453     -2975.0277      21             1.184489       3.460588       6.9761302    
     16600   299.42372      10164.853     -3208.5814     -2970.1261      20             1.1287214      3.2672934      6.5864714    
     16700   310.70004      10005.176     -1294.9818     -2969.5031      20             1.1287214      3.3194376      6.6915878    
     16800   339.41546      9922.2358      2699.3035     -2961.096       19             1.0728908      3.1798256      6.4101469    
     16900   346.48966      9797.6084      532.7416      -2960.2652      19             1.0728908      3.2202736      6.4916851    
     17000   311.73454      9703.4003     -607.51085     -2960.9419      19             1.0728908      3.2515385      6.5547115    
     17100   337.49315      9723.1724     -1027.9211     -2960.5348      19             1.0728908      3.2449265      6.5413824    
     17200   313.3217       9696.0333      780.98485     -2954.7908      18             1.0169972      3.0827454      6.2144448    
     17300   328.33863      9631.3603      1012.5271     -2955.1581      18             1.0169972      3.1034455      6.2561737    
     17400   332.04661      9835.4702      402.89127     -2961.32        19             1.0728908      3.2078771      6.4666953    
     17500   341.08832      9923.4371     -966.92995     -2954.147       18             1.0169972      3.0121017      6.0720356    
     17600   338.41607      9887.3412      581.30969     -2954.5312      18             1.0169972      3.023098       6.0942029    
     17700   297.12126      9986.2635      508.48754     -2956.9817      18             1.0169972      2.9931517      6.0338347    
     17800   320.35759      9882.0528     -453.73191     -2949.9809      17             0.96104032     2.8566761      5.7587162    
     17900   329.83573      9816.2951     -959.29644     -2941.2774      16             0.90502016     2.7066471      5.4562757    
     18000   315.52495      9836.821       1679.9533     -2950.6521      17             0.96104032     2.8698117      5.785196     
     18100   309.51195      9909.2101     -165.96491     -2943.3907      16             0.90502016     2.6812678      5.4051142    
     18200   302.58046      10012.027     -1536.3346     -2962.9676      19             1.0728908      3.151308       6.3526587    
     18300   327.98122      9993.1632     -1834.3272     -2974.5879      21             1.184489       3.4895993      7.0346135    
     18400   307.6824       9905.5966      1076.0088     -2969.3972      20             1.1287214      3.3528074      6.7588574    
     18500   316.0375       9700.7141      3122.1506     -2988.839       23             1.2958357      3.9371629      7.9368479    
     18600   332.6259       9623.8701      436.3648      -2994.4523      24             1.3514149      4.1411479      8.3480572    
     18700   316.06146      9590.9185     -5416.6682     -2987.8165      23             1.2958357      3.982235       8.0277078    
     18800   330.85418      9641.4729     -2064.0467     -2982.853       22             1.2401937      3.7891216      7.6384145    
     18900   351.63451      9681.8902     -398.39898     -2973.2785      21             1.184489       3.60179        7.2607765    
     19000   341.76492      9835.7343      2416.1657     -2968.0217      20             1.1287214      3.3766221      6.8068649    
     19100   339.99948      9992.4564      631.55816     -2960.8869      19             1.0728908      3.1574798      6.3651005    
     19200   347.62826      10078.377     -2039.9193     -2954.4787      18             1.0169972      2.9657951      5.978687     
     19300   334.97753      10186.202     -1040.9739     -2953.9393      18             1.0169972      2.9344009      5.9154001    
     19400   332.14629      10047.655      993.07394     -2947.1316      17             0.96104032     2.8095932      5.6638027    
     19500   342.8341       9946.2163     -126.93313     -2947.3319      17             0.96104032     2.8382475      5.7215665    
     19600   337.82699      9925.5025     -396.24232     -2948.9965      17             0.96104032     2.8441708      5.7335069    
     19700   320.37954      10008.268     -3153.3681     -2943.1593      16             0.90502016     2.6547298      5.3516167    
     19800   313.90984      9908.5216     -766.92473     -2956.5859      18             1.0169972      3.0166359      6.081176     
     19900   305.08108      9899.3079      2485.9003     -2957.3095      18             1.0169972      3.0194436      6.086836     
     20000   343.33317      10063.737      445.14404     -2968.9634      20             1.1287214      3.3001219      6.6526497    
Loop time of 4018.84 on 1 procs for 20000 steps with 400 atoms

Performance: 0.215 ns/day, 111.634 hours/ns, 4.977 timesteps/s, 1.991 katom-step/s
869.4% CPU use with 1 MPI tasks x no OpenMP threads

MPI task timing breakdown:
Section |  min time  |  avg time  |  max time  |%varavg| %total
---------------------------------------------------------------
Pair    | 3676.9     | 3676.9     | 3676.9     |   0.0 | 91.49
Bond    | 0.0040596  | 0.0040596  | 0.0040596  |   0.0 |  0.00
Neigh   | 4.2229     | 4.2229     | 4.2229     |   0.0 |  0.11
Comm    | 0.36758    | 0.36758    | 0.36758    |   0.0 |  0.01
Output  | 1.1783     | 1.1783     | 1.1783     |   0.0 |  0.03
Modify  | 336.12     | 336.12     | 336.12     |   0.0 |  8.36
Other   |            | 0.05939    |            |       |  0.00

Nlocal:            400 ave         400 max         400 min
Histogram: 1 0 0 0 0 0 0 0 0 0
Nghost:           4546 ave        4546 max        4546 min
Histogram: 1 0 0 0 0 0 0 0 0 0
Neighs:          88335 ave       88335 max       88335 min
Histogram: 1 0 0 0 0 0 0 0 0 0
FullNghs:        25138 ave       25138 max       25138 min
Histogram: 1 0 0 0 0 0 0 0 0 0

Total # of neighbors = 88335
Ave neighs/atom = 220.8375
Ave special neighs/atom = 0
Neighbor list builds = 3488
Dangerous builds = 0

#-------------------- End ----------------------------------------------------------------
Total wall time: 1:07:03
