LAMMPS (2 Aug 2023)
package omp 8
WARNING: OpenMP support not enabled during compilation; using 1 thread only. (../fix_omp.cpp:116)
#-------------------- Initialization -----------------------------------------------------
clear
package omp 8
WARNING: OpenMP support not enabled during compilation; using 1 thread only. (../fix_omp.cpp:116)
echo            both    # echoes each input script command to both log file and screen
#-----------------------------------------------------------------------------------------
units           metal   # determines units of all quantities used in the input file
atom_style      full
boundary        p p p   # periodic boundary condition
#-----------------------------------------------------------------------------------------
variable Tini equal 273+25   # [K] (Initial temperature)
variable Tfin equal 273+25   # [K] (Annealing temperature)

variable Pfin index   13.0   # [bar] (Note 1.0 bar = 0.1 MPa)

variable Nout equal    100   # every 100 time steps to the specified file

variable   natom index 5
variable   nmove index 5
variable   mu    index -5.46 # Fermi Energy (eV) from MOPAC2016 PM7
variable   disp  index 0.01

variable   tfac  equal 5.0/3.0 # (3 trans + 2 rot)/(3 trans) for molecular (2 atoms)
# trans = 3, rot = 2 (line), rot = 3 (non-line), vib = 3n-5 (line), vib = 3n-6 (non-line)
# total = 3n = 3+2+3n-5 = 3+3+3n-6
# vib = about 0.0 at R.T. for molecular (2 atoms)

#-------------------- Atom & Lattice description ----------------------------------------
read_data       data.lammps
Reading data file ...
  orthogonal box = (0 0 0) to (24.07 24.07 24.07)
  1 by 1 by 1 MPI processor grid
  reading atoms ...
  360 atoms
Finding 1-2 1-3 1-4 neighbors ...
  special bond factors lj:    0        0        0       
  special bond factors coul:  0        0        0       
     0 = max # of 1-2 neighbors
     0 = max # of 1-3 neighbors
     0 = max # of 1-4 neighbors
     1 = max # of special neighbors
  special bonds CPU = 0.000 seconds
  read_data CPU = 0.005 seconds

replicate 1 1 1
Replication is creating a 1x1x1 = 1 times larger system...
  orthogonal box = (0 0 0) to (24.07 24.07 24.07)
  1 by 1 by 1 MPI processor grid
  360 atoms
Finding 1-2 1-3 1-4 neighbors ...
  special bond factors lj:    0        0        0       
  special bond factors coul:  0        0        0       
     0 = max # of 1-2 neighbors
     0 = max # of 1-3 neighbors
     0 = max # of 1-4 neighbors
     1 = max # of special neighbors
  special bonds CPU = 0.000 seconds
  replicate CPU = 0.001 seconds

molecule        my_one_gas ./molecular_files/H2.txt
Read molecule template my_one_gas:
  1 molecules
  0 fragments
  2 atoms with max type 3
  0 bonds with max type 0
  0 angles with max type 0
  0 dihedrals with max type 0
  0 impropers with max type 0
group           gas type 3
0 atoms in group gas
variable        atoms_of_gas equal 2 # The number of atoms per gas molecule

variable elem string "C H H" # specifies the potential file used

# set overlap_cutoff (Note: H-H: 1.06 A) = x 85% => 0.90
variable overlap_cutoff_value equal 0.90

#-------------------- Force field --------------------------------------------------------
# GPU case
pair_style hybrid/overlay chgnet/gpu /mnt/d/lammps/potentials/CHGNET momb 12.0 0.75 20.0
pair_coeff    * *  chgnet/gpu 0.3.0 ${elem}
pair_coeff    * *  chgnet/gpu 0.3.0 C H H

# CPU case
#pair_style hybrid/overlay chgnet /mnt/d/lammps/potentials/CHGNET momb 12.0 0.75 20.0
#pair_coeff    * *  chgnet 0.3.0 ${elem}

# atom type 1, C
variable C6_1 equal 1.75  # Jnm6mol-1
variable R0_1 equal 1.452 # Angstrom

# atom type 2, H
variable C6_2 equal 0.14  # Jnm6mol-1
variable R0_2 equal 1.001 # Angstrom

# atom type 3, H
variable C6_3 equal 0.14  # Jnm6mol-1
variable R0_3 equal 1.001 # Angstrom

# convert [Jnm6mol-1] to [eVA6], (sqrt() or ()^0.5)
#-----------------------------------------------------------------------------------------
pair_coeff 1 1 momb 0.0 1.0 1.0 $(sqrt(v_C6_1 * v_C6_1)*10.364) $(v_R0_1 + v_R0_1) # C-C
pair_coeff 1 1 momb 0.0 1.0 1.0 18.137000000000000455 $(v_R0_1 + v_R0_1) 
pair_coeff 1 1 momb 0.0 1.0 1.0 18.137000000000000455 2.9039999999999999147 
pair_coeff 1 2 momb 0.0 1.0 1.0 $(sqrt(v_C6_1 * v_C6_2)*10.364) $(v_R0_1 + v_R0_2) # C-H
pair_coeff 1 2 momb 0.0 1.0 1.0 5.1299182761521660012 $(v_R0_1 + v_R0_2) 
pair_coeff 1 2 momb 0.0 1.0 1.0 5.1299182761521660012 2.4529999999999998472 
pair_coeff 1 3 momb 0.0 1.0 1.0 $(sqrt(v_C6_1 * v_C6_3)*10.364) $(v_R0_1 + v_R0_3) # C-Hg
pair_coeff 1 3 momb 0.0 1.0 1.0 5.1299182761521660012 $(v_R0_1 + v_R0_3) 
pair_coeff 1 3 momb 0.0 1.0 1.0 5.1299182761521660012 2.4529999999999998472 
#-----------------------------------------------------------------------------------------
pair_coeff 2 2 momb 0.0 1.0 1.0 $(sqrt(v_C6_2 * v_C6_2)*10.364) $(v_R0_2 + v_R0_2) # H-H
pair_coeff 2 2 momb 0.0 1.0 1.0 1.4509600000000002495 $(v_R0_2 + v_R0_2) 
pair_coeff 2 2 momb 0.0 1.0 1.0 1.4509600000000002495 2.0019999999999997797 
pair_coeff 2 3 momb 0.0 1.0 1.0 $(sqrt(v_C6_2 * v_C6_3)*10.364) $(v_R0_2 + v_R0_3) # H-Hg
pair_coeff 2 3 momb 0.0 1.0 1.0 1.4509600000000002495 $(v_R0_2 + v_R0_3) 
pair_coeff 2 3 momb 0.0 1.0 1.0 1.4509600000000002495 2.0019999999999997797 
#-----------------------------------------------------------------------------------------
pair_coeff 3 3 momb 0.0 1.0 1.0 $(sqrt(v_C6_3 * v_C6_3)*10.364) $(v_R0_3 + v_R0_3) # Hg-Hg
pair_coeff 3 3 momb 0.0 1.0 1.0 1.4509600000000002495 $(v_R0_3 + v_R0_3) 
pair_coeff 3 3 momb 0.0 1.0 1.0 1.4509600000000002495 2.0019999999999997797 
#-----------------------------------------------------------------------------------------

#-------------------- Energy Minimization ------------------------------------------------
# 0 [K], structure optimization
#fix             emin all box/relax x 0.0 y 0.0 z 0.0
#fix             emin all box/relax aniso 0.0
fix             emin all box/relax iso ${Pfin}
fix             emin all box/relax iso 13.0
min_style       cg
min_modify      dmax 0.2
min_modify      line quadratic
minimize        1.0e-4 1.0e-6 100 1000

CITE-CITE-CITE-CITE-CITE-CITE-CITE-CITE-CITE-CITE-CITE-CITE-CITE

Your simulation uses code contributions which should be cited:

- Pair style momb: doi:10.1021/jp412098n

@Article{pair_momb_2015,
title = {A Force Field for Describing the Polyvinylpyrrolidone-Mediated
    Solution-Phase Synthesis of Shape-Selective {Ag} Nanoparticles},
volume = {118},
number = {6},
url = {https://doi.org/10.1021/jp412098n},
doi = {10.1021/jp412098n},
journal = {J.~Phys.\ Chem.~C},
author = {Zhou, Ya and Wissam A. Saidi and Kristen A. Fichthorn},
year = {2014},
pages = {3366--3374}
}

CITE-CITE-CITE-CITE-CITE-CITE-CITE-CITE-CITE-CITE-CITE-CITE-CITE

No /omp style for force computation currently active
Neighbor list info ...
  update: every = 1 steps, delay = 0 steps, check = yes
  max neighbors/atom: 2000, page size: 100000
  master list distance cutoff = 14
  ghost atom cutoff = 14
  binsize = 7, bins = 4 4 4
  2 neighbor lists, perpetual/occasional/extra = 2 0 0
  (1) pair chgnet/gpu, perpetual
      attributes: full, newton on, omp, cut 8
      pair build: full/bin/omp
      stencil: full/bin/3d
      bin: standard
  (2) pair momb, perpetual
      attributes: half, newton on, omp
      pair build: half/bin/newton/omp
      stencil: half/bin/3d
      bin: standard
WARNING: Energy due to 1 extra global DOFs will be included in minimizer energies
 (../min.cpp:225)
Per MPI rank memory allocation (min/avg/max) = 8 | 8 | 8 Mbytes
   Step          Temp          E_pair         E_mol          TotEng         Press          Volume    
         0   0             -2851.4481      0             -2851.4481      4049.9683      13945.313    
         1   0             -2851.4591      0             -2851.4591      3919.4161      13949.497    
Loop time of 0.130643 on 1 procs for 1 steps with 360 atoms

219.2% CPU use with 1 MPI tasks x no OpenMP threads

Minimization stats:
  Stopping criterion = energy tolerance
  Energy initial, next-to-last, final = 
     -2851.44805945589  -2851.44805945589  -2851.45909497227
  Force two-norm initial, final = 107.86066 104.54354
  Force max component initial, final = 105.41308 102.02451
  Final line search alpha, max atom move = 9.4864888e-07 9.6785438e-05
  Iterations, force evaluations = 1 1

MPI task timing breakdown:
Section |  min time  |  avg time  |  max time  |%varavg| %total
---------------------------------------------------------------
Pair    | 0.13054    | 0.13054    | 0.13054    |   0.0 | 99.92
Bond    | 3.91e-07   | 3.91e-07   | 3.91e-07   |   0.0 |  0.00
Neigh   | 0          | 0          | 0          |   0.0 |  0.00
Comm    | 1.9492e-05 | 1.9492e-05 | 1.9492e-05 |   0.0 |  0.01
Output  | 0          | 0          | 0          |   0.0 |  0.00
Modify  | 5.103e-06  | 5.103e-06  | 5.103e-06  |   0.0 |  0.00
Other   |            | 7.512e-05  |            |       |  0.06

Nlocal:            360 ave         360 max         360 min
Histogram: 1 0 0 0 0 0 0 0 0 0
Nghost:           3144 ave        3144 max        3144 min
Histogram: 1 0 0 0 0 0 0 0 0 0
Neighs:          48732 ave       48732 max       48732 min
Histogram: 1 0 0 0 0 0 0 0 0 0
FullNghs:        22488 ave       22488 max       22488 min
Histogram: 1 0 0 0 0 0 0 0 0 0

Total # of neighbors = 48732
Ave neighs/atom = 135.36667
Ave special neighs/atom = 0
Neighbor list builds = 0
Dangerous builds = 0
unfix           emin

#-------------------- Settings -----------------------------------------------------------
reset_timestep 0

timestep 0.0005  # 0.5 [fs] (Recommend 0.1-1.0 [fs]), sets the timestep for subsequent simulations

variable        ngas equal count(gas)/${atoms_of_gas} # The number of molecules (e.g., H2, N2, CO2, H2O, He, Ar, Kr, etc)
variable        ngas equal count(gas)/2 

variable        wtp  equal mass(gas)/mass(all)*100 # Mass Percent Concentration, wt.% [dimensionless] (Absolute, Not excess)

#variable        molc equal (v_ngas/6.022e23)/(vol*1e-30) # molar concentration [mol/m^3] (Absolute, Not excess)
variable        molL equal (v_ngas/6.022e23)/(vol*1e-27) # molar concentration [mol/L] = [mol/dm^3] (Absolute, Not excess)

variable        mc   equal (mass(gas)/6.022e23/1000)/(vol*1e-30) # Mass Concentration [kg/m^3] (Absolute, Not excess)

thermo ${Nout}   # computes and prints thermodynamic
thermo 100   
thermo_style custom step temp vol press etotal v_ngas v_wtp v_molL v_mc # specifies content of thermodynamic data to be printed in screen

#---------- output file settings --------------------------------------
dump            d1 all cfg ${Nout} cfg/run.*.cfg mass type xs ys zs id type vx vy vz fx fy fz
dump            d1 all cfg 100 cfg/run.*.cfg mass type xs ys zs id type vx vy vz fx fy fz
dump_modify     d1 element ${elem}
dump_modify     d1 element C H H
#dump_modify     d1 sort id
#----------------------------------------------------------------------

velocity all create ${Tini} 12345 mom yes rot no # sets the velocity of a group of atoms
velocity all create 298 12345 mom yes rot no 

#-------------------- Run the simulation -------------------------------------------------
compute mdtemp all temp
compute_modify mdtemp dynamic/dof yes

## Equilibrium system, calculation settings
#fix f1 all nvt temp ${Tini} ${Tfin} $(20*dt)
fix f1 all npt temp ${Tini} ${Tfin} $(20*dt) iso 0.0 ${Pfin} $(200*dt)
fix f1 all npt temp 298 ${Tfin} $(20*dt) iso 0.0 ${Pfin} $(200*dt)
fix f1 all npt temp 298 298 $(20*dt) iso 0.0 ${Pfin} $(200*dt)
fix f1 all npt temp 298 298 0.010000000000000000208 iso 0.0 ${Pfin} $(200*dt)
fix f1 all npt temp 298 298 0.010000000000000000208 iso 0.0 13.0 $(200*dt)
fix f1 all npt temp 298 298 0.010000000000000000208 iso 0.0 13.0 0.10000000000000000555
fix_modify f1 temp mdtemp

# non-equilibrium system, calculation settings
#fix f1 all nve
#fix f2 all langevin ${Tini} ${Tfin} $(20*dt) 12345
#fix_modify f2 temp mdtemp

# GCMC
fix f3 gas gcmc ${Nout} ${natom} ${nmove} 0 12345 ${Tfin} ${mu} ${disp} mol my_one_gas pressure ${Pfin} tfac_insert ${tfac} full_energy overlap_cutoff ${overlap_cutoff_value}
fix f3 gas gcmc 100 ${natom} ${nmove} 0 12345 ${Tfin} ${mu} ${disp} mol my_one_gas pressure ${Pfin} tfac_insert ${tfac} full_energy overlap_cutoff ${overlap_cutoff_value}
fix f3 gas gcmc 100 5 ${nmove} 0 12345 ${Tfin} ${mu} ${disp} mol my_one_gas pressure ${Pfin} tfac_insert ${tfac} full_energy overlap_cutoff ${overlap_cutoff_value}
fix f3 gas gcmc 100 5 5 0 12345 ${Tfin} ${mu} ${disp} mol my_one_gas pressure ${Pfin} tfac_insert ${tfac} full_energy overlap_cutoff ${overlap_cutoff_value}
fix f3 gas gcmc 100 5 5 0 12345 298 ${mu} ${disp} mol my_one_gas pressure ${Pfin} tfac_insert ${tfac} full_energy overlap_cutoff ${overlap_cutoff_value}
fix f3 gas gcmc 100 5 5 0 12345 298 -5.46 ${disp} mol my_one_gas pressure ${Pfin} tfac_insert ${tfac} full_energy overlap_cutoff ${overlap_cutoff_value}
fix f3 gas gcmc 100 5 5 0 12345 298 -5.46 0.01 mol my_one_gas pressure ${Pfin} tfac_insert ${tfac} full_energy overlap_cutoff ${overlap_cutoff_value}
fix f3 gas gcmc 100 5 5 0 12345 298 -5.46 0.01 mol my_one_gas pressure 13.0 tfac_insert ${tfac} full_energy overlap_cutoff ${overlap_cutoff_value}
fix f3 gas gcmc 100 5 5 0 12345 298 -5.46 0.01 mol my_one_gas pressure 13.0 tfac_insert 1.66666666666667 full_energy overlap_cutoff ${overlap_cutoff_value}
fix f3 gas gcmc 100 5 5 0 12345 298 -5.46 0.01 mol my_one_gas pressure 13.0 tfac_insert 1.66666666666667 full_energy overlap_cutoff 0.9

run             20000 # 10 ps
No /omp style for force computation currently active
0 atoms in group FixGCMC:gcmc_exclusion_group:f3
0 atoms in group FixGCMC:rotation_gas_atoms:f3
Per MPI rank memory allocation (min/avg/max) = 6.875 | 6.875 | 6.875 Mbytes
   Step          Temp          Volume         Press          TotEng         v_ngas         v_wtp          v_molL          v_mc     
         0   298            13949.497      4978.2696     -2837.6306      0              0              0              0            
       100   296.76936      13975.991      3388.4786     -2828.0202      0              0              0              0            
       200   283.98703      14549.448      89.308816     -2856.7528      4              0.22780127     0.45653356     0.92031687   
       300   296.84448      14528.665     -1255.3489     -2849.495       3              0.17094831     0.34288998     0.69122505   
       400   306.02685      14413.446     -232.18061     -2854.9721      4              0.22780127     0.46084131     0.92900078   
       500   281.84285      14186.131      854.64417     -2848.4989      3              0.17094831     0.3511693      0.70791517   
       600   302.60114      13738.588      462.34781     -2855.8214      4              0.22780127     0.48347848     0.9746346    
       700   294.91318      13440.685      2.3282538     -2857.2989      4              0.22780127     0.49419442     0.99623665   
       800   329.47062      13165.561     -86.711487     -2863.2468      5              0.28458952     0.63065217     1.2713191    
       900   282.61084      13050.638     -1189.6372     -2864.0295      5              0.28458952     0.63620562     1.2825142    
      1000   311.01606      13117.636     -127.46448     -2869.3835      6              0.34131315     0.75954748     1.5311566    
      1100   319.59855      12951.664      1052.5065     -2870.817       6              0.34131315     0.76928085     1.5507779    
      1200   291.28933      13132.209     -739.62649     -2885.0762      8              0.45456704     1.0116061      2.0392765    
      1300   315.00798      12851.724      74.48765      -2892.6828      9              0.51109751     1.1628946      2.344256     
      1400   301.36529      12849.588     -1124.0981     -2885.8016      8              0.45456704     1.033856       2.0841296    
      1500   284.63944      12292.498     -848.76501     -2898.7672      10             0.56756381     1.3508873      2.7232266    
      1600   324.24077      11950.632     -671.69393     -2919.4581      13             0.73657879     1.8063909      3.6414673    
      1700   342.58777      11593.472      46.567224     -2918.8203      13             0.73657879     1.8620403      3.7536497    
      1800   328.49416      11087.198      1223.382      -2933.9792      15             0.84893659     2.2466153      4.5289068    
      1900   328.76348      10955.386      630.23191     -2927.2554      14             0.7927895      2.1220694      4.2778374    
      2000   310.15904      10705.694     -438.44933     -2947.9952      17             0.96104032     2.636898       5.3156699    
      2100   302.97222      10562.89      -507.49815     -2948.9601      17             0.96104032     2.6725475      5.387535     
      2200   314.05578      10330.608     -1265.5987     -2942.151       16             0.90502016     2.5718957      5.1846332    
      2300   329.49647      9939.6279     -161.4356      -2934.5902      15             0.84893659     2.505996       5.0517873    
      2400   307.92411      9809.3673     -218.78565     -2927.6456      14             0.7927895      2.3699888      4.7776129    
      2500   334.10907      9801.0364      685.4932      -2948.1154      17             0.96104032     2.8802897      5.8063183    
      2600   341.91251      9958.4874      217.09364     -2945.984       17             0.96104032     2.8347502      5.7145162    
      2700   298.5999       10002.194     -76.707304     -2940.0031      16             0.90502016     2.6563419      5.3548665    
      2800   341.34465      9889.9286     -1017.5675     -2939.4262      16             0.90502016     2.6864953      5.415652     
      2900   312.45131      9705.2172     -348.03646     -2932.0895      15             0.84893659     2.5665235      5.1738034    
      3000   327.78815      9765.3079      812.5458      -2933.0581      15             0.84893659     2.5507304      5.1419665    
      3100   293.25453      9994.2202      1581.4619     -2934.7192      15             0.84893659     2.4923073      5.0241925    
      3200   323.14013      10350.675      1114.3553     -2928.2513      14             0.7927895      2.2460457      4.5277586    
      3300   307.48628      10504.922     -311.15862     -2918.7382      13             0.73657879     2.0549902      4.1426136    
      3400   287.5117       10735.605     -1272.5951     -2918.8011      13             0.73657879     2.0108334      4.0535988    
      3500   308.80937      10971.544     -1530.1178     -2912.026       12             0.68030434     1.816238       3.6613178    
      3600   344.37505      11165.935     -181.05473     -2917.125       13             0.73657879     1.9333367      3.8973748    
      3700   330.43661      11513.037      1863.9601     -2910.9652      12             0.68030434     1.7308148      3.4891149    
      3800   310.93084      11576.465      404.46104     -2916.2501      13             0.73657879     1.8647758      3.7591642    
      3900   307.47978      11895.132     -392.71304     -2909.4944      12             0.68030434     1.6752176      3.3770376    
      4000   343.10178      11997.506     -762.88846     -2902.1585      11             0.62396605     1.5225128      3.0692031    
      4100   313.521        11908.283     -1041.4567     -2897.9541      10             0.56756381     1.394473       2.8110902    
      4200   302.35692      12023.399     -2271.3395     -2890.3063      9              0.51109751     1.2430096      2.5057582    
      4300   279.37579      11658.578     -1298.5665     -2884.0374      8              0.45456704     1.139472       2.2970388    
      4400   313.77535      11766.58       1129.3898     -2900.5641      10             0.56756381     1.4112664      2.8449437    
      4500   317.36433      11574.397      2406.9806     -2898.7081      10             0.56756381     1.4346993      2.8921816    
      4600   295.62085      11688.404      1949.0117     -2892.4155      9              0.51109751     1.2786349      2.5775745    
      4700   323.81796      11814.201     -284.98192     -2892.4498      9              0.51109751     1.26502        2.5501285    
      4800   318.69495      11653.238     -897.45627     -2891.1871      9              0.51109751     1.2824934      2.5853527    
      4900   297.75663      11561.568     -339.94066     -2884.7562      8              0.45456704     1.149033       2.3163126    
      5000   314.75754      11109.015      602.49161     -2913.4552      12             0.68030434     1.7937625      3.6160099    
      5100   334.58148      10890.32       413.55517     -2906.1687      11             0.62396605     1.6773022      3.3812399    
      5200   325.52184      10551.933      839.87109     -2928.3936      14             0.7927895      2.2032067      4.4414003    
      5300   344.27336      10362.553     -796.16456     -2953.1037      18             1.0169972      2.884463       5.8147314    
      5400   339.8299       10288.412     -3256.3491     -2953.5072      18             1.0169972      2.9052492      5.8566338    
      5500   319.61885      10094.884     -2434.7509     -2947.979       17             0.96104032     2.7964486      5.6373048    
      5600   310.97628      10074.063      341.37726     -2947.1561      17             0.96104032     2.8022281      5.6489557    
      5700   327.50213      9937.4541      1957.4253     -2940.1143      16             0.90502016     2.6736472      5.3897519    
      5800   314.53281      9902.8067      1233.3159     -2940.0443      16             0.90502016     2.6830016      5.4086092    
      5900   292.02573      9831.7447      1311.369      -2934.5568      15             0.84893659     2.5334942      5.1072203    
      6000   327.62421      9779.2489     -598.88307     -2923.8307      14             0.7927895      2.3772879      4.7923272    
      6100   305.39251      9854.7755     -508.44338     -2918.7635      13             0.73657879     2.1905636      4.4159133    
      6200   316.43167      9852.7214     -449.58998     -2925.1402      14             0.7927895      2.3595603      4.7565904    
      6300   313.50883      10035.273      19.190317     -2918.9991      13             0.73657879     2.1511634      4.3364873    
      6400   324.44052      9950.7005      971.34466     -2919.6919      13             0.73657879     2.1694465      4.3733438    
      6500   313.7748       9998.7631      1099.5271     -2940.0092      16             0.90502016     2.6572533      5.3567038    
      6600   329.99276      9991.6583     -74.523769     -2952.4901      18             1.0169972      2.9915356      6.0305769    
      6700   306.36532      10168.129     -1188.6257     -2953.4246      18             1.0169972      2.9396167      5.9259146    
      6800   339.39426      10249.269      195.68357     -2964.6502      20             1.1287214      3.2403832      6.5322237    
      6900   338.21608      10380.472      1597.4643     -2977.9163      22             1.2401937      3.5193691      7.0946257    
      7000   317.0569       10576.794      2849.9783     -2992.9811      24             1.3514149      3.7680483      7.5959332    
      7100   325.60806      10605.343      1305.6798     -2985.6528      23             1.2958357      3.6013253      7.2598396    
      7200   322.45286      10701.158      203.22181     -2978.6159      22             1.2401937      3.4139028      6.8820185    
      7300   333.56463      10516.428      706.42704     -2971.0666      21             1.184489       3.3159678      6.6845932    
      7400   317.51515      10346.964      1140.8643     -2966.5295      20             1.1287214      3.2097877      6.4705469    
      7500   328.40134      10311.215      204.60619     -2959.7286      19             1.0728908      3.0598702      6.1683311    
      7600   326.33904      10071.127     -231.64629     -2951.6098      18             1.0169972      2.9679303      5.9829913    
      7700   315.0767       10140.654      501.56039     -2946.4207      17             0.96104032     2.7838267      5.6118605    
      7800   330.56079      9963.4259      1767.8144     -2946.8491      17             0.96104032     2.8333451      5.7116837    
      7900   342.25902      10021.607      1347.7814     -2946.302       17             0.96104032     2.8168959      5.6785241    
      8000   342.33611      9942.7618     -60.05203      -2939.432       16             0.90502016     2.6722199      5.3868747    
      8100   328.27083      9910.8178     -3021.416      -2931.5356      15             0.84893659     2.5132808      5.0664725    
      8200   330.34915      9896.3695     -4660.5671     -2938.5964      16             0.90502016     2.6847468      5.4121273    
      8300   307.99141      9934.5798     -2313.6925     -2952.3218      18             1.0169972      3.0087233      6.0652252    
      8400   321.14362      9986.5313     -516.30242     -2952.101       18             1.0169972      2.9930715      6.0336729    
      8500   336.36697      10115.022      1495.1965     -2974.7626      21             1.184489       3.4475589      6.949865     
      8600   330.2661       10038.067      2068.86       -2992.7091      24             1.3514149      3.9702733      8.0035946    
      8700   348.6925       10031.081      578.00795     -3001.4541      25             1.4069317      4.1385817      8.342884     
      8800   325.78898      9950.4105      151.48407     -3028.3271      29             1.6283751      4.8396756      9.7562052    
      8900   315.78351      10058.313     -298.26069     -3041.4806      31             1.7387242      5.1179474      10.317168    
      9000   330.25596      10191.699      421.43267     -3041.7638      31             1.7387242      5.0509649      10.182139    
      9100   365.95619      10417.078     -710.53042     -3058.3345      34             1.9037845      5.4199124      10.925893    
      9200   370.20195      10484.515     -683.15304     -3066.3204      35             1.9586814      5.543435       11.1749      
      9300   367.99869      10641.544     -252.64146     -3067.5859      35             1.9586814      5.4616348      11.01        
      9400   370.28617      10606.901     -643.54347     -3060.5749      34             1.9037845      5.3229166      10.730361    
      9500   375.27857      10541.001     -403.04773     -3052.5651      33             1.8488261      5.1986591      10.479873    
      9600   368.31732      10412.298     -633.41017     -3059.4329      34             1.9037845      5.4224003      10.930908    
      9700   343.27093      10247.006      611.83094     -3053.6627      33             1.8488261      5.3478126      10.780548    
      9800   353.25294      10211.153     -640.02358     -3047.4526      32             1.793806       5.2039657      10.49057     
      9900   362.1691       10064.744     -1011.6001     -3038.7686      31             1.7387242      5.1146769      10.310575    
     10000   368.55437      10094.039      1990.2125     -3068.6487      35             1.9586814      5.7578762      11.607188    
     10100   345.97251      10114.387     -660.32315     -3070.1384      35             1.9586814      5.7462923      11.583836    
     10200   362.00778      10086.518     -1533.7045     -3069.6749      35             1.9586814      5.7621696      11.615843    
     10300   369.18513      10017.505     -1348.7074     -3061.3094      34             1.9037845      5.6360986      11.361699    
     10400   370.62264      9877.805       772.07158     -3060.9257      34             1.9037845      5.7158091      11.522385    
     10500   340.03417      9980.2916      562.4245      -3061.7407      34             1.9037845      5.6571141      11.404063    
     10600   359.04099      9886.6465      1.8547741     -3060.7127      34             1.9037845      5.7106975      11.512081    
     10700   358.63941      9928.0299      315.9482      -3061.0233      34             1.9037845      5.6868934      11.464095    
     10800   362.99911      9968.4599     -1018.124      -3061.3234      34             1.9037845      5.6638286      11.417599    
     10900   368.04136      9924.5006     -1208.4473     -3069.0771      35             1.9586814      5.8562368      11.805471    
     11000   333.7057       10061.761     -637.05524     -3062.2329      34             1.9037845      5.6113087      11.311725    
     11100   349.54312      9986.9104      318.93061     -3054.9486      33             1.8488261      5.4870894      11.061314    
     11200   333.61116      10122.6        294.06973     -3054.4252      33             1.8488261      5.4135368      10.913041    
     11300   343.01963      10040.049      793.23183     -3047.8002      32             1.793806       5.2926526      10.669352    
     11400   349.81692      10160.239     -2023.9277     -3040.9805      31             1.7387242      5.0666045      10.213667    
     11500   333.21351      10220.228     -1643.9339     -3035.0026      30             1.6835806      4.8743861      9.8261775    
     11600   337.64065      10309.724      2400.0896     -3041.1252      31             1.7387242      4.993142       10.065575    
     11700   354.03808      10336.058      2670.1502     -3035.3436      30             1.6835806      4.8197617      9.7160611    
     11800   329.1185       10261.103      389.06841     -3048.3359      32             1.793806       5.1786333      10.439503    
     11900   397.62126      10291.468     -791.87688     -3046.0709      32             1.793806       5.163354       10.408702    
     12000   346.04229      10115.176     -2642.277      -3055.5564      33             1.8488261      5.4175102      10.92105     
     12100   342.97032      10075.547     -1097.4468     -3055.785       33             1.8488261      5.4388182      10.964005    
     12200   356.90124      9889.1235      2392.4992     -3048.7973      32             1.793806       5.3734279      10.832186    
     12300   334.34821      9829.202       1900.8643     -3041.159       31             1.7387242      5.2372425      10.557652    
     12400   358.16338      10073.462     -265.94907     -3046.5532      32             1.793806       5.2750974      10.633963    
     12500   364.9826       9997.744      -1801.661      -3040.1887      31             1.7387242      5.148953       10.379671    
     12600   331.06943      10216.232     -962.40017     -3049.0056      32             1.793806       5.2013788      10.485355    
     12700   336.41013      10013.3       -325.5903      -3049.8907      32             1.793806       5.306791       10.697854    
     12800   324.88218      10050.924      617.25671     -3042.8761      31             1.7387242      5.1217095      10.324752    
     12900   350.58874      9925.1385      1009.5819     -3036.5415      30             1.6835806      5.019309       10.118325    
     13000   343.36106      9924.8138      1518.1799     -3029.7613      29             1.6283751      4.8521574      9.7813671    
     13100   322.43213      10091.883      1779.8191     -3038.3855      30             1.6835806      4.9363768      9.9511433    
     13200   372.30123      10158.272      147.73777     -3042.4108      31             1.7387242      5.0675858      10.215645    
     13300   329.87754      10387.791     -3466.5418     -3043.6568      31             1.7387242      4.9556171      9.9899294    
     13400   349.87212      10414.739     -1063.2031     -3049.9418      32             1.793806       5.1022395      10.285502    
     13500   371.44897      10379.143      564.87525     -3041.5659      31             1.7387242      4.959746       9.9982528    
     13600   338.6291       10368.421      508.52904     -3043.2552      31             1.7387242      4.9648751      10.008592    
     13700   359.56595      10171.233      853.78995     -3035.4228      30             1.6835806      4.8978662      9.8735106    
     13800   375.96279      10131.765     -13.86992      -3027.9036      29             1.6283751      4.7530473      9.581573     
     13900   390.72973      10052.267     -1721.9182     -3019.9794      28             1.5731076      4.6254424      9.3243369    
     14000   345.34228      10085.573     -830.43071     -3029.7822      29             1.6283751      4.7748163      9.6254567    
     14100   339.63069      10165.199      173.79831     -3029.5923      29             1.6283751      4.7374143      9.5500587    
     14200   357.03041      10137.754      1245.0716     -3029.0454      29             1.6283751      4.7502396      9.575913     
     14300   338.17854      10159.212      83.297558     -3022.6317      28             1.5731076      4.5767509      9.2261806    
     14400   327.54911      10088.63      -372.47085     -3015.6941      27             1.5177779      4.4441715      8.9589164    
     14500   327.5516       9946.1171     -433.24366     -3022.6735      28             1.5731076      4.6748073      9.4238505    
     14600   312.59444      9798.1837      714.17508     -3022.7766      28             1.5731076      4.7453877      9.5661322    
     14700   368.88125      9874.6975      1099.5026     -3034.1611      30             1.6835806      5.0449481      10.17001     
     14800   351.70796      10035.386      1333.3553     -3034.8423      30             1.6835806      4.9641676      10.007166    
     14900   341.54216      10211.688      786.68068     -3028.895       29             1.6283751      4.715847       9.5065816    
     15000   352.63123      10294.15      -350.42582     -3054.1291      33             1.8488261      5.3233216      10.731178    
     15100   353.622        10328.527     -2905.8466     -3088.7829      38             2.1230042      6.109483       12.315985    
     15200   362.44363      10228.934     -1246.0369     -3109.0263      41             2.286777       6.6559911      13.417679    
     15300   392.45915      10149.445      620.72805     -3101.8936      40             2.232247       6.5445073      13.192941    
     15400   367.11105      10080.902      1492.481      -3095.9304      39             2.1776561      6.4242803      12.950578    
     15500   353.92458      10112.73       737.16092     -3088.2409      38             2.1230042      6.2398543      12.578797    
     15600   340.19746      10213.069     -1446.9131     -3088.8267      38             2.1230042      6.1785503      12.455216    
     15700   350.05283      10270.906     -994.90238     -3094.9882      39             2.1776561      6.3054355      12.711001    
     15800   361.32108      10396.731      737.18716     -3107.9457      41             2.286777       6.5485675      13.201126    
     15900   359.58004      10312.886      1077.8819     -3107.7231      41             2.286777       6.6018078      13.308452    
     16000   381.40164      10312.774     -578.30967     -3101.1         40             2.232247       6.4408582      12.983997    
     16100   366.67703      10124.936     -336.55471     -3099.9495      40             2.232247       6.5603489      13.224876    
     16200   357.09088      10037.318     -92.870846     -3093.7073      39             2.1776561      6.4521755      13.006811    
     16300   366.17974      10003.439      1627.4604     -3094.0055      39             2.1776561      6.4740272      13.050862    
     16400   393.58284      10075.621     -361.25506     -3088.1794      38             2.1230042      6.2628359      12.625126    
     16500   343.00411      10120.855     -1022.255      -3082.3331      37             2.0682911      6.0707697      12.237943    
     16600   347.88109      10114.937     -696.52639     -3074.4743      36             2.0135169      5.9101511      11.914155    
     16700   355.48035      9961.4696      1505.9599     -3073.3139      36             2.0135169      6.0012033      12.097706    
     16800   349.15699      10056.254      1800.3904     -3087.521       38             2.1230042      6.274897       12.649439    
     16900   372.67504      10092.024     -538.32137     -3081.1935      37             2.0682911      6.088113       12.272905    
     17000   336.34083      10224.394     -2919.3383     -3095.1205      39             2.1776561      6.3341196      12.768825    
     17100   351.99325      10151.222     -1153.1976     -3094.097       39             2.1776561      6.3797773      12.860865    
     17200   357.36571      10087.354      1798.3674     -3101.2734      40             2.232247       6.5847907      13.274148    
     17300   348.44527      10062.135     -268.93305     -3100.8414      40             2.232247       6.6012946      13.307418    
     17400   375.87434      10005.214      1063.6182     -3100.6845      40             2.232247       6.63885        13.383125    
     17500   333.44636      9983.4355      773.08233     -3100.6562      40             2.232247       6.6533324      13.41232     
     17600   341.43184      10070.771      1701.0326     -3102.8627      40             2.232247       6.5956333      13.296005    
     17700   395.9542       10220.893     -1712.6815     -3092.7174      39             2.1776561      6.3362897      12.7732      
     17800   374.85266      10292.777     -1079.9427     -3086.0818      38             2.1230042      6.1307032      12.358762    
     17900   357.20693      10374.607      1079.9994     -3114.8358      42             2.3412462      6.7225941      13.551943    
     18000   347.94329      10385.642     -1036.7081     -3106.4764      41             2.286777       6.5555594      13.215221    
     18100   348.77118      10379.623     -1059.8809     -3135.744       45             2.5042901      7.1992982      14.512921    
     18200   405.51494      10279.22      -228.19791     -3147.7423      47             2.6126839      7.5927122      15.305997    
     18300   362.24649      10200.861     -414.69343     -3142.4839      46             2.5585171      7.4882488      15.095411    
     18400   407.80017      10208.538      452.93091     -3141.6741      46             2.5585171      7.4826173      15.084059    
     18500   372.52354      10180.699     -600.64148     -3135.8057      45             2.5042901      7.3399682      14.796495    
     18600   354.85696      10320.441     -1002.9826     -3144.2855      46             2.5585171      7.4014847      14.920505    
     18700   364.30641      10287.231      202.45056     -3143.0557      46             2.5585171      7.4253784      14.968672    
     18800   378.31507      10286.17       836.95587     -3135.7004      45             2.5042901      7.2647061      14.644776    
     18900   401.38774      10253.741      250.25777     -3133.5509      45             2.5042901      7.2876822      14.691093    
     19000   353.89415      10155.297     -1694.5853     -3129.0675      44             2.4500027      7.1948092      14.503872    
     19100   356.71248      10108.438     -665.6576      -3128.3195      44             2.4500027      7.2281619      14.571107    
     19200   378.00353      10074.054      832.52775     -3128.9206      44             2.4500027      7.2528324      14.62084     
     19300   365.82484      10028.299      2802.5566     -3122.7063      43             2.3956547      7.1203352      14.353741    
     19400   387.86989      10189.309      2035.0567     -3140.4315      46             2.5585171      7.4967384      15.112525    
     19500   367.2987       10118.343     -2437.7608     -3134.9515      45             2.5042901      7.3852016      14.88768     
     19600   390.65313      10224.484     -2711.2542     -3141.2658      46             2.5585171      7.4709474      15.060533    
     19700   357.01432      10011.269     -989.88304     -3134.2621      45             2.5042901      7.4641894      15.04691     
     19800   361.98867      9914.5802      1612.4988     -3134.2816      45             2.5042901      7.5369812      15.19365     
     19900   365.31247      9931.7455      1132.6544     -3134.5037      45             2.5042901      7.5239548      15.16739     
     20000   371.41147      9991.9116      105.75439     -3154.0036      48             2.6667905      7.9772261      16.081131    
Loop time of 3854.96 on 1 procs for 20000 steps with 456 atoms

Performance: 0.224 ns/day, 107.082 hours/ns, 5.188 timesteps/s, 2.366 katom-step/s
214.0% CPU use with 1 MPI tasks x no OpenMP threads

MPI task timing breakdown:
Section |  min time  |  avg time  |  max time  |%varavg| %total
---------------------------------------------------------------
Pair    | 3515.6     | 3515.6     | 3515.6     |   0.0 | 91.20
Bond    | 0.0030062  | 0.0030062  | 0.0030062  |   0.0 |  0.00
Neigh   | 3.8503     | 3.8503     | 3.8503     |   0.0 |  0.10
Comm    | 0.34802    | 0.34802    | 0.34802    |   0.0 |  0.01
Output  | 1.3092     | 1.3092     | 1.3092     |   0.0 |  0.03
Modify  | 333.78     | 333.78     | 333.78     |   0.0 |  8.66
Other   |            | 0.06849    |            |       |  0.00

Nlocal:            456 ave         456 max         456 min
Histogram: 1 0 0 0 0 0 0 0 0 0
Nghost:           5162 ave        5162 max        5162 min
Histogram: 1 0 0 0 0 0 0 0 0 0
Neighs:         116928 ave      116928 max      116928 min
Histogram: 1 0 0 0 0 0 0 0 0 0
FullNghs:        46736 ave       46736 max       46736 min
Histogram: 1 0 0 0 0 0 0 0 0 0

Total # of neighbors = 116928
Ave neighs/atom = 256.42105
Ave special neighs/atom = 0
Neighbor list builds = 3403
Dangerous builds = 0

#-------------------- End ----------------------------------------------------------------
Total wall time: 1:04:18
